     Program PWSCF v.7.1 starts on  8Dec2023 at 13:30:43

     Reading input from BH3_opt.in

     Current dimensions of program PWSCF are:
     Max number of different atomic species (ntypx) = 10
     Max number of k-points (npk) =  40000
     Max angular momentum in pseudopotentials (lmaxx) =  4

     IMPORTANT: XC functional enforced from input :
     Exchange-correlation= PBE
                           (   1   4   3   4   0   0   0)
     Any further DFT definition will be discarded
     Please, verify this is what you really want

     Message from routine setup:
     using ibrav=0 with symmetry is DISCOURAGED, use correct ibrav instead

     R & G space division:  proc/nbgrp/npool/nimage =      28
     Subspace diagonalization in iterative solution of the eigenvalue problem:
     a serial algorithm will be used

     Using Slab Decomposition

     bravais-lattice index     =            0
     lattice parameter (alat)  =       8.1081  a.u.
     unit-cell volume          =     992.9145 (a.u.)^3
     number of atoms/cell      =           16
     number of atomic types    =            2
     number of electrons       =        24.00
     number of Kohn-Sham states=           16
     kinetic-energy cutoff     =     150.0000  Ry
     charge density cutoff     =     600.0000  Ry
     scf convergence threshold =      1.0E-08
     mixing beta               =       0.7000
     number of iterations used =            8  plain     mixing
     energy convergence thresh.=      1.0E-04
     force convergence thresh. =      1.0E-03
     press convergence thresh. =      5.0E-01
     Exchange-correlation= PBE
                           (   1   4   3   4   0   0   0)
     nstep                     =           50

     celldm(1)=   8.108059  celldm(2)=   0.000000  celldm(3)=   0.000000
     celldm(4)=   0.000000  celldm(5)=   0.000000  celldm(6)=   0.000000

     crystal axes: (cart. coord. in units of alat)
               a(1) = (   1.000000   0.000000   0.000000 )
               a(2) = (   0.000000   1.442472   0.000000 )
               a(3) = (  -0.644894   0.000000   1.291379 )

     reciprocal axes: (cart. coord. in units 2 pi/alat)
               b(1) = (  1.000000  0.000000  0.499384 )
               b(2) = (  0.000000  0.693254  0.000000 )
               b(3) = (  0.000000  0.000000  0.774366 )

     PseudoPot. # 1 for B  read from file:
     /scratch/antwerpen/209/vsc20922/pseudos/b_pbe_v1.4.uspp.F.UPF
     MD5 check sum: cc6de2960df11db49a60e589f9ebb39b
     Pseudo is Ultrasoft + core correction, Zval =  3.0
     Generated by new atomic code, or converted to UPF format
     Using radial grid of  781 points,  4 beta functions with:
                l(1) =   0
                l(2) =   0
                l(3) =   1
                l(4) =   1
     Q(r) pseudized with  8 coefficients,  rinner =    1.100   1.100   1.100

     PseudoPot. # 2 for H  read from file:
     /scratch/antwerpen/209/vsc20922/pseudos/H.pbe-rrkjus_psl.1.0.0.UPF
     MD5 check sum: f52b6d4d1c606e5624b1dc7b2218f220
     Pseudo is Ultrasoft, Zval =  1.0
     Generated using "atomic" code by A. Dal Corso  v.5.1
     Using radial grid of  929 points,  2 beta functions with:
                l(1) =   0
                l(2) =   0
     Q(r) pseudized with 0 coefficients

     atomic species   valence    mass     pseudopotential
        B              3.00    10.81350     B ( 1.00)
        H              1.00     1.00750     H ( 1.00)

      4 Sym. Ops., with inversion, found ( 2 have fractional translation)

   Cartesian axes

     site n.     atom                  positions (alat units)
         1           B   tau(   1) = (  -0.2732280   0.7844302   0.8324538  )
         2           B   tau(   2) = (   0.3058873   0.0631944   1.1046154  )
         3           B   tau(   3) = (   0.6283342   0.6580415   0.4589256  )
         4           B   tau(   4) = (   0.0492189   1.3792774   0.1867641  )
         5           H   tau(   5) = (  -0.0461572   0.9393059   0.8669348  )
         6           H   tau(   6) = (   0.0788165   0.2180701   1.0701343  )
         7           H   tau(   7) = (   0.4012634   0.5031658   0.4244446  )
         8           H   tau(   8) = (   0.2762897   1.2244016   0.2212451  )
         9           H   tau(   9) = (  -0.4347912   0.7143759   1.0464948  )
        10           H   tau(  10) = (   0.4674505   1.4356118   0.8905744  )
        11           H   tau(  11) = (   0.7898974   0.7280958   0.2448847  )
        12           H   tau(  12) = (  -0.1123443   0.0068599   0.4008051  )
        13           H   tau(  13) = (   0.5519442   0.9107572   0.6146316  )
        14           H   tau(  14) = (   0.1256089   0.1895213   0.0310581  )
        15           H   tau(  15) = (  -0.1968380   0.5317145   0.6767478  )
        16           H   tau(  16) = (   0.2294973   1.2529504   1.2603213  )

     number of k points=   100  Marzari-Vanderbilt smearing, width (Ry)=  0.0050

     Number of k-points >= 100: set verbosity='high' to print them.

     Initial potential from superposition of free atoms

     starting charge      23.9988, renormalised to      24.0000
     Starting wfcs are   28 randomized atomic wfcs

     Self-consistent Calculation

     iteration #  1     ecut=   150.00 Ry     beta= 0.70
     Davidson diagonalization with overlap
     ethr =  1.00E-02,  avg # of iterations =  3.0

     total energy              =     -39.46254648 Ry
     estimated scf accuracy    <       1.11439937 Ry

[...]

     End of self-consistent calculation

     Number of k-points >= 100: set verbosity='high' to print the bands.

     the Fermi energy is     1.1889 ev

!    total energy              =     -39.61416000 Ry
     estimated scf accuracy    <          1.7E-09 Ry
     smearing contrib. (-TS)   =      -0.00000000 Ry
     internal energy E=F+TS    =     -39.61416000 Ry

     The total energy is F=E-TS. E is the sum of the following terms:
     one-electron contribution =     -16.34455208 Ry
     hartree contribution      =      13.57354740 Ry
     xc contribution           =     -20.26303618 Ry
     ewald contribution        =     -16.58011913 Ry

     convergence has been achieved in   7 iterations

     Forces acting on atoms (cartesian axes, Ry/au):

     atom    1 type  1   force =    -0.00131839   -0.00175134   -0.00451539
     atom    2 type  1   force =     0.00131839   -0.00175134    0.00451539
     atom    3 type  1   force =     0.00131839    0.00175134    0.00451539
     atom    4 type  1   force =    -0.00131839    0.00175134   -0.00451539
     atom    5 type  2   force =     0.00297602    0.00228585    0.00073775
     atom    6 type  2   force =    -0.00297602    0.00228585   -0.00073775
     atom    7 type  2   force =    -0.00297602   -0.00228585   -0.00073775
     atom    8 type  2   force =     0.00297602   -0.00228585    0.00073775
     atom    9 type  2   force =    -0.00181010   -0.00111726    0.00325511
     atom   10 type  2   force =     0.00181010   -0.00111726   -0.00325511
     atom   11 type  2   force =     0.00181010    0.00111726   -0.00325511
     atom   12 type  2   force =    -0.00181010    0.00111726    0.00325511
     atom   13 type  2   force =    -0.00136808    0.00249305   -0.00040632
     atom   14 type  2   force =     0.00136808    0.00249305    0.00040632
     atom   15 type  2   force =     0.00136808   -0.00249305    0.00040632
     atom   16 type  2   force =    -0.00136808   -0.00249305   -0.00040632

     Total force =     0.015899     Total SCF correction =     0.000017

     Computing stress (Cartesian axis) and pressure

          total   stress  (Ry/bohr**3)                   (kbar)     P=       13.55
   0.00010250   0.00000000  -0.00001246           15.08        0.00       -1.83
   0.00000000   0.00009465   0.00000000            0.00       13.92        0.00
  -0.00001246   0.00000000   0.00007926           -1.83        0.00       11.66

     BFGS Geometry Optimization
     Energy error            =      0.0E+00 Ry
     Gradient error          =      4.5E-03 Ry/Bohr
     Cell gradient error     =      1.5E+01 kbar

     number of scf cycles    =   1
     number of bfgs steps    =   0

     enthalpy           new  =     -39.6141599952 Ry

     new trust radius        =       0.0162680081 bohr
     new conv_thr            =       0.0000000100 Ry

     new unit-cell volume =    999.79136 a.u.^3 (   148.15379 Ang^3 )
     density =      0.62031 g/cm^3

CELL_PARAMETERS (alat=  8.10805891)
   1.002562503   0.000000000  -0.000311438
   0.000000000   1.445884915   0.000000000
  -0.646948550   0.000000000   1.294139094

ATOMIC_POSITIONS (crystal)
B             0.1420450999        0.5436600271        0.6441924643
B             0.8579549001        0.0436600271        0.8558075357
B             0.8579549001        0.4563399729        0.3558075357
B             0.1420450999        0.9563399729        0.1441924643
H             0.3871883837        0.6513734948        0.6713950893
H             0.6128116163        0.1513734948        0.8286049107
H             0.6128116163        0.3486265052        0.3286049107
H             0.3871883837        0.8486265052        0.1713950893
H             0.0877884489        0.4951487822        0.8106805913
H             0.9122115511        0.9951487822        0.6893194087
H             0.9122115511        0.5048512178        0.1893194087
H             0.0877884489        0.0048512178        0.3106805913
H             0.8586874638        0.6315996703        0.4759108638
H             0.1413125362        0.1315996703        0.0240891362
H             0.1413125362        0.3684003297        0.5240891362
H             0.8586874638        0.8684003297        0.9759108638

     Writing config-only to output data dir ./BH3.save/
     NEW-OLD atomic charge density approx. for the potential
     extrapolated charge   24.16507, renormalised to   24.00000

[...]

     Energy error            =      5.9E-04 Ry
     Gradient error          =      1.6E-03 Ry/Bohr
     Cell gradient error     =      9.1E+00 kbar

[...]

     enthalpy           old  =     -39.6141599952 Ry
     enthalpy           new  =     -39.6147548092 Ry

     CASE: enthalpy          _new < enthalpy          _old

[...]

     iteration #  1     ecut=   150.00 Ry     beta= 0.70
     Davidson diagonalization with overlap
     c_bands:  1 eigenvalues not converged
     c_bands:  1 eigenvalues not converged
     c_bands:  1 eigenvalues not converged
     ethr =  1.00E-06,  avg # of iterations = 10.5

[...]

     number of scf cycles    =  14
     number of bfgs steps    =  13

     enthalpy           old  =     -39.6223961803 Ry
     enthalpy           new  =     -39.6224194665 Ry

     CASE: enthalpy          _new < enthalpy          _old

     new trust radius        =       0.0121387668 bohr
     new conv_thr            =            1.0E-10 Ry

     new unit-cell volume =   1361.02287 a.u.^3 (   201.68278 Ang^3 )
     density =      0.45567 g/cm^3

[...]

ATOMIC_POSITIONS (crystal)
B             0.1331858258        0.5392420734        0.6352876182
B             0.8668141742        0.0392420734        0.8647123818
B             0.8668141742        0.4607579266        0.3647123818
B             0.1331858258        0.9607579266        0.1352876182
H             0.3521466763        0.6358898520        0.6613055295
H             0.6478533237        0.1358898520        0.8386944705
H             0.6478533237        0.3641101480        0.3386944705
H             0.3521466763        0.8641101480        0.1613055295
H             0.0917796562        0.4952420959        0.7894940590
H             0.9082203438        0.9952420959        0.7105059410
H             0.9082203438        0.5047579041        0.2105059410
H             0.0917796562        0.0047579041        0.2894940590
H             0.8710284152        0.6154044348        0.4761344540
H             0.1289715848        0.1154044348        0.0238655460
H             0.1289715848        0.3845955652        0.5238655460
H             0.8710284152        0.8845955652        0.9761344540

     Writing config-only to output data dir ./BH3.save/
     NEW-OLD atomic charge density approx. for the potential
     extrapolated charge   24.09521, renormalised to   24.00000

[...]

     Energy error            =      1.6E-05 Ry
     Gradient error          =      4.7E-04 Ry/Bohr
     Cell gradient error     =      3.7E-01 kbar

     bfgs converged in  15 scf cycles and  14 bfgs steps
     (criteria: energy <  1.0E-04 Ry, force <  1.0E-03 Ry/Bohr, cell <  5.0E-01 kbar)

     End of BFGS Geometry Optimization

     Final enthalpy           =     -39.6224358469 Ry

     File ./BH3.bfgs deleted, as requested
Begin final coordinates
     new unit-cell volume =   1361.02287 a.u.^3 (   201.68278 Ang^3 )
     density =      0.45567 g/cm^3

CELL_PARAMETERS (alat=  8.10805891)
   1.122558674   0.000000000  -0.012882622
   0.000000000   1.639726719   0.000000000
  -0.740681917   0.000000000   1.395684610

ATOMIC_POSITIONS (crystal)
B             0.1331858258        0.5392420734        0.6352876182
B             0.8668141742        0.0392420734        0.8647123818
B             0.8668141742        0.4607579266        0.3647123818
B             0.1331858258        0.9607579266        0.1352876182
H             0.3521466763        0.6358898520        0.6613055295
H             0.6478533237        0.1358898520        0.8386944705
H             0.6478533237        0.3641101480        0.3386944705
H             0.3521466763        0.8641101480        0.1613055295
H             0.0917796562        0.4952420959        0.7894940590
H             0.9082203438        0.9952420959        0.7105059410
H             0.9082203438        0.5047579041        0.2105059410
H             0.0917796562        0.0047579041        0.2894940590
H             0.8710284152        0.6154044348        0.4761344540
H             0.1289715848        0.1154044348        0.0238655460
H             0.1289715848        0.3845955652        0.5238655460
H             0.8710284152        0.8845955652        0.9761344540
End final coordinates

     Writing config-only to output data dir ./BH3.save/

     Final scf calculation at the relaxed structure.
     The G-vectors are recalculated for the final unit cell
     Results may differ from those at the preceding step.

     Using Slab Decomposition

     bravais-lattice index     =            0
     lattice parameter (alat)  =       8.1081  a.u.
     unit-cell volume          =    1361.0229 (a.u.)^3
     number of atoms/cell      =           16
     number of atomic types    =            2
     number of electrons       =        24.00
     number of Kohn-Sham states=           16
     kinetic-energy cutoff     =     150.0000  Ry
     charge density cutoff     =     600.0000  Ry
     scf convergence threshold =      1.0E-10
     mixing beta               =       0.7000
     number of iterations used =            8  plain     mixing
     press convergence thresh. =      5.0E-01
     Exchange-correlation= PBE
                           (   1   4   3   4   0   0   0)

     celldm(1)=   8.108059  celldm(2)=   0.000000  celldm(3)=   0.000000
     celldm(4)=   0.000000  celldm(5)=   0.000000  celldm(6)=   0.000000

     crystal axes: (cart. coord. in units of alat)
               a(1) = (   1.122559   0.000000  -0.012883 )
               a(2) = (   0.000000   1.639727   0.000000 )
               a(3) = (  -0.740682   0.000000   1.395685 )

     reciprocal axes: (cart. coord. in units 2 pi/alat)
               b(1) = (  0.896281  0.000000  0.475651 )
               b(2) = (  0.000000  0.609858  0.000000 )
               b(3) = (  0.008273  0.000000  0.720885 )

     PseudoPot. # 1 for B  read from file:
     /scratch/antwerpen/209/vsc20922/pseudos/b_pbe_v1.4.uspp.F.UPF
     MD5 check sum: cc6de2960df11db49a60e589f9ebb39b
     Pseudo is Ultrasoft + core correction, Zval =  3.0
     Generated by new atomic code, or converted to UPF format
     Using radial grid of  781 points,  4 beta functions with:
                l(1) =   0
                l(2) =   0
                l(3) =   1
                l(4) =   1
     Q(r) pseudized with  8 coefficients,  rinner =    1.100   1.100   1.100

     PseudoPot. # 2 for H  read from file:
     /scratch/antwerpen/209/vsc20922/pseudos/H.pbe-rrkjus_psl.1.0.0.UPF
     MD5 check sum: f52b6d4d1c606e5624b1dc7b2218f220
     Pseudo is Ultrasoft, Zval =  1.0
     Generated using "atomic" code by A. Dal Corso  v.5.1
     Using radial grid of  929 points,  2 beta functions with:
                l(1) =   0
                l(2) =   0
     Q(r) pseudized with 0 coefficients

     atomic species   valence    mass     pseudopotential
        B              3.00    10.81350     B ( 1.00)
        H              1.00     1.00750     H ( 1.00)

      4 Sym. Ops., with inversion, found ( 2 have fractional translation)

   Cartesian axes

     site n.     atom                  positions (alat units)
         1           B   tau(   1) = (  -0.3210371   0.8842096   0.8849454  )
         2           B   tau(   2) = (   0.3325729   0.0643463   1.1956989  )
         3           B   tau(   3) = (   0.7029139   0.7555171   0.4978566  )
         4           B   tau(   4) = (   0.0493038   1.5753804   0.1871031  )
         5           H   tau(   5) = (  -0.0945117   1.0426856   0.9184374  )
         6           H   tau(   6) = (   0.1060475   0.2228222   1.1622069  )
         7           H   tau(   7) = (   0.4763885   0.5970411   0.4643646  )
         8           H   tau(   8) = (   0.2758292   1.4169045   0.2205951  )
         9           H   tau(   9) = (  -0.4817359   0.8120617   1.1007023  )
        10           H   tau(  10) = (   0.4932717   1.6319251   0.9799419  )
        11           H   tau(  11) = (   0.8636127   0.8276650   0.2820996  )
        12           H   tau(  12) = (  -0.1113950   0.0078017   0.4028600  )
        13           H   tau(  13) = (   0.6251163   1.0090951   0.6533124  )
        14           H   tau(  14) = (   0.1271014   0.1892317   0.0316473  )
        15           H   tau(  15) = (  -0.2432396   0.6306316   0.7294896  )
        16           H   tau(  16) = (   0.2547754   1.4504950   1.3511547  )

     number of k points=   100  Marzari-Vanderbilt smearing, width (Ry)=  0.0050

     Number of k-points >= 100: set verbosity='high' to print them.

     Initial potential from superposition of free atoms

     starting charge      23.9988, renormalised to      24.0000
     Starting wfcs are   28 randomized atomic wfcs

     Self-consistent Calculation

     iteration #  1     ecut=   150.00 Ry     beta= 0.70
     Davidson diagonalization with overlap
     c_bands:  1 eigenvalues not converged
     c_bands:  2 eigenvalues not converged
     c_bands:  1 eigenvalues not converged
     c_bands:  1 eigenvalues not converged
     c_bands:  2 eigenvalues not converged
     c_bands:  1 eigenvalues not converged
     ethr =  1.00E-06,  avg # of iterations = 16.4

[...]

     total energy              =     -39.62245709 Ry
     estimated scf accuracy    <          2.4E-10 Ry

     iteration # 10     ecut=   150.00 Ry     beta= 0.70
     Davidson diagonalization with overlap
     ethr =  1.01E-12,  avg # of iterations =  2.0

     End of self-consistent calculation

     Number of k-points >= 100: set verbosity='high' to print the bands.

     the Fermi energy is    -0.2860 ev

!    total energy              =     -39.62245709 Ry
     estimated scf accuracy    <          6.3E-12 Ry
     smearing contrib. (-TS)   =       0.00000000 Ry
     internal energy E=F+TS    =     -39.62245709 Ry

     The total energy is F=E-TS. E is the sum of the following terms:
     one-electron contribution =     -28.30216300 Ry
     hartree contribution      =      18.51087572 Ry
     xc contribution           =     -20.17783175 Ry
     ewald contribution        =      -9.65333805 Ry

     convergence has been achieved in  10 iterations

     Forces acting on atoms (cartesian axes, Ry/au):

     atom    1 type  1   force =    -0.00003480   -0.00000993   -0.00025788
     atom    2 type  1   force =     0.00003480   -0.00000993    0.00025788
     atom    3 type  1   force =     0.00003480    0.00000993    0.00025788
     atom    4 type  1   force =    -0.00003480    0.00000993   -0.00025788
     atom    5 type  2   force =     0.00000285   -0.00006820    0.00027700
     atom    6 type  2   force =    -0.00000285   -0.00006820   -0.00027700
     atom    7 type  2   force =    -0.00000285    0.00006820   -0.00027700
     atom    8 type  2   force =     0.00000285    0.00006820    0.00027700
     atom    9 type  2   force =     0.00013237    0.00014829    0.00000802
     atom   10 type  2   force =    -0.00013237    0.00014829   -0.00000802
     atom   11 type  2   force =    -0.00013237   -0.00014829   -0.00000802
     atom   12 type  2   force =     0.00013237   -0.00014829    0.00000802
     atom   13 type  2   force =    -0.00047472    0.00033746    0.00004295
     atom   14 type  2   force =     0.00047472    0.00033746   -0.00004295
     atom   15 type  2   force =     0.00047472   -0.00033746   -0.00004295
     atom   16 type  2   force =    -0.00047472   -0.00033746    0.00004295

     Total force =     0.001456     Total SCF correction =     0.000002

     Computing stress (Cartesian axis) and pressure

          total   stress  (Ry/bohr**3)                   (kbar)     P=        0.24
   0.00000180   0.00000000  -0.00000019            0.26        0.00       -0.03
   0.00000000   0.00000049   0.00000000            0.00        0.07        0.00
  -0.00000019   0.00000000   0.00000259           -0.03        0.00        0.38

     Writing all to output data dir ./BH3.save/

     General routines

     Parallel routines

   This run was terminated on:  13:44:12   8Dec2023

   JOB DONE.