     Program PWSCF v.6.7MaX starts on 28Nov2023 at  8:14:52

     R & G space division:  proc/nbgrp/npool/nimage =       8
     Reading input from Cs3AlH6_opt.in

     Current dimensions of program PWSCF are:
     Max number of different atomic species (ntypx) = 10
     Max number of k-points (npk) =  40000
     Max angular momentum in pseudopotentials (lmaxx) =  3
     file Al.pbe-n-kjpaw_psl.1.0.0.UPF: wavefunction(s)  3S 3P renormalized

     IMPORTANT: XC functional enforced from input :
     Exchange-correlation= PBE
                           (   1   4   3   4   0   0   0)
     Any further DFT definition will be discarded
     Please, verify this is what you really want

     Found symmetry operation: I + (  0.5000 -0.5000  0.0000)
     This is a supercell, fractional translations are disabled
     Message from routine setup:
     using ibrav=0 with symmetry is DISCOURAGED, use correct ibrav instead

     bravais-lattice index     =            0
     lattice parameter (alat)  =      17.2402  a.u.
     unit-cell volume          =    5294.8493 (a.u.)^3
     number of atoms/cell      =           40
     number of atomic types    =            3
     number of electrons       =       144.00
     number of Kohn-Sham states=           86
     kinetic-energy cutoff     =      80.0000  Ry
     charge density cutoff     =     400.0000  Ry
     scf convergence threshold =      1.0E-08
     mixing beta               =       0.7000
     number of iterations used =            8  plain     mixing
     energy convergence thresh.=      1.0E-04
     force convergence thresh. =      1.0E-03
     press convergence thresh. =      5.0E-01
     Exchange-correlation= PBE
                           (   1   4   3   4   0   0   0)
     nstep                     =           50

     celldm(1)=  17.240249  celldm(2)=   0.000000  celldm(3)=   0.000000
     celldm(4)=   0.000000  celldm(5)=   0.000000  celldm(6)=   0.000000

     crystal axes: (cart. coord. in units of alat)
               a(1) = (   1.010976   0.000000   0.000000 )
               a(2) = (   0.000000   1.010976   0.000000 )
               a(3) = (   0.000000   0.000000   1.010976 )

     reciprocal axes: (cart. coord. in units 2 pi/alat)
               b(1) = (  0.989143  0.000000  0.000000 )
               b(2) = (  0.000000  0.989143  0.000000 )
               b(3) = (  0.000000  0.000000  0.989143 )

     PseudoPot. # 1 for H  read from file:
     /home/thibautdhomme/PseudoLib/H.pbe-rrkjus_psl.1.0.0.UPF
     MD5 check sum: f52b6d4d1c606e5624b1dc7b2218f220
     Pseudo is Ultrasoft, Zval =  1.0
     Generated using "atomic" code by A. Dal Corso  v.5.1
     Using radial grid of  929 points,  2 beta functions with:
                l(1) =   0
                l(2) =   0
     Q(r) pseudized with 0 coefficients

     PseudoPot. # 2 for Al read from file:
     /home/thibautdhomme/PseudoLib/Al.pbe-n-kjpaw_psl.1.0.0.UPF
     MD5 check sum: cfc449ca30b5f3223ec38ddd88ac046d
     Pseudo is Projector augmented-wave + core cor, Zval =  3.0
     Generated using "atomic" code by A. Dal Corso  v.5.1
     Shape of augmentation charge: PSQ
     Using radial grid of 1135 points,  6 beta functions with:
                l(1) =   0
                l(2) =   0
                l(3) =   1
                l(4) =   1
                l(5) =   2
                l(6) =   2
     Q(r) pseudized with 0 coefficients

     PseudoPot. # 3 for Cs read from file:
     /home/thibautdhomme/PseudoLib/Cs_pbe_v1.uspp.F.UPF
     MD5 check sum: 3476d69cb178dfad3ffaa59df4e07ca4
     Pseudo is Ultrasoft + core correction, Zval =  9.0
     Generated by new atomic code, or converted to UPF format
     Using radial grid of  905 points,  6 beta functions with:
                l(1) =   0
                l(2) =   0
                l(3) =   1
                l(4) =   1
                l(5) =   2
                l(6) =   2
     Q(r) pseudized with  6 coefficients,  rinner =    1.500   1.500   1.500
                                                       1.500   1.500

     atomic species   valence    mass     pseudopotential
        H              1.00     1.00750     H ( 1.00)
        Al             3.00    26.98100     Al( 1.00)
        Cs             9.00   132.90500     Cs( 1.00)

     48 Sym. Ops., with inversion, found

                                    s                        frac. trans.

      isym =  1     identity

 cryst.   s( 1) = (     1          0          0      )
                  (     0          1          0      )
                  (     0          0          1      )

 cart.    s( 1) = (  1.0000000  0.0000000  0.0000000 )
                  (  0.0000000  1.0000000  0.0000000 )
                  (  0.0000000  0.0000000  1.0000000 )

      isym =  2     180 deg rotation - cart. axis [0,0,1]

[...]

 cryst.   s(10) = (     0          0         -1      )
                  (     0         -1          0      )
                  (    -1          0          0      )

 cart.    s(10) = (  0.0000000  0.0000000 -1.0000000 )
                  (  0.0000000 -1.0000000  0.0000000 )
                  ( -1.0000000  0.0000000  0.0000000 )

[...]

      isym = 25     inversion

[...]

      isym = 26     inv. 180 deg rotation - cart. axis [0,0,1]

[...]

   Cartesian axes

     site n.     atom                  positions (alat units)
         1           Al  tau(   1) = (   0.5054882   0.0000000   0.0000000  )
         2           Al  tau(   2) = (   0.0000000   0.5054882   0.0000000  )
         3           Al  tau(   3) = (   0.0000000   0.0000000   0.5054882  )
         4           Al  tau(   4) = (   0.5054882   0.5054882   0.5054882  )
         5           Cs  tau(   5) = (   0.0000000   0.0000000   0.0000000  )
         6           Cs  tau(   6) = (   0.5054882   0.5054882   0.0000000  )
         7           Cs  tau(   7) = (   0.2527441   0.2527441   0.2527441  )
         8           Cs  tau(   8) = (   0.7582323   0.2527441   0.2527441  )
         9           Cs  tau(   9) = (   0.2527441   0.7582323   0.2527441  )
        10           Cs  tau(  10) = (   0.7582323   0.7582323   0.2527441  )
        11           Cs  tau(  11) = (   0.5054882   0.0000000   0.5054882  )
        12           Cs  tau(  12) = (   0.0000000   0.5054882   0.5054882  )
        13           Cs  tau(  13) = (   0.2527441   0.2527441   0.7582323  )
        14           Cs  tau(  14) = (   0.7582323   0.2527441   0.7582323  )
        15           Cs  tau(  15) = (   0.2527441   0.7582323   0.7582323  )
        16           Cs  tau(  16) = (   0.7582323   0.7582323   0.7582323  )
        17           H   tau(  17) = (   0.3093114   0.0000000   0.0000000  )
        18           H   tau(  18) = (   0.7016650   0.0000000   0.0000000  )
        19           H   tau(  19) = (   0.5054882   0.1961768   0.0000000  )
        20           H   tau(  20) = (   0.0000000   0.3093114   0.0000000  )
        21           H   tau(  21) = (   0.1961768   0.5054882   0.0000000  )
        22           H   tau(  22) = (   0.8147995   0.5054882   0.0000000  )
        23           H   tau(  23) = (   0.0000000   0.7016650   0.0000000  )
        24           H   tau(  24) = (   0.5054882   0.8147995   0.0000000  )
        25           H   tau(  25) = (   0.5054882   0.0000000   0.1961768  )
        26           H   tau(  26) = (   0.0000000   0.5054882   0.1961768  )
        27           H   tau(  27) = (   0.0000000   0.0000000   0.3093114  )
        28           H   tau(  28) = (   0.5054882   0.5054882   0.3093113  )
        29           H   tau(  29) = (   0.1961768   0.0000000   0.5054882  )
        30           H   tau(  30) = (   0.8147995   0.0000000   0.5054882  )
        31           H   tau(  31) = (   0.0000000   0.1961768   0.5054882  )
        32           H   tau(  32) = (   0.5054882   0.3093113   0.5054882  )
        33           H   tau(  33) = (   0.3093113   0.5054882   0.5054882  )
        34           H   tau(  34) = (   0.7016650   0.5054882   0.5054882  )
        35           H   tau(  35) = (   0.5054882   0.7016650   0.5054882  )
        36           H   tau(  36) = (   0.0000000   0.8147995   0.5054882  )
        37           H   tau(  37) = (   0.0000000   0.0000000   0.7016650  )
        38           H   tau(  38) = (   0.5054882   0.5054882   0.7016650  )
        39           H   tau(  39) = (   0.5054882   0.0000000   0.8147995  )
        40           H   tau(  40) = (   0.0000000   0.5054882   0.8147995  )

   Crystallographic axes

     site n.     atom                  positions (cryst. coord.)
         1           Al  tau(   1) = (  0.5000000  0.0000000  0.0000000  )
         2           Al  tau(   2) = (  0.0000000  0.5000000  0.0000000  )
         3           Al  tau(   3) = (  0.0000000  0.0000000  0.5000000  )
         4           Al  tau(   4) = (  0.5000000  0.5000000  0.5000000  )
         5           Cs  tau(   5) = (  0.0000000  0.0000000  0.0000000  )
         6           Cs  tau(   6) = (  0.5000000  0.5000000  0.0000000  )
         7           Cs  tau(   7) = (  0.2500000  0.2500000  0.2500000  )
         8           Cs  tau(   8) = (  0.7500000  0.2500000  0.2500000  )
         9           Cs  tau(   9) = (  0.2500000  0.7500000  0.2500000  )
        10           Cs  tau(  10) = (  0.7500000  0.7500000  0.2500000  )
        11           Cs  tau(  11) = (  0.5000000  0.0000000  0.5000000  )
        12           Cs  tau(  12) = (  0.0000000  0.5000000  0.5000000  )
        13           Cs  tau(  13) = (  0.2500000  0.2500000  0.7500000  )
        14           Cs  tau(  14) = (  0.7500000  0.2500000  0.7500000  )
        15           Cs  tau(  15) = (  0.2500000  0.7500000  0.7500000  )
        16           Cs  tau(  16) = (  0.7500000  0.7500000  0.7500000  )
        17           H   tau(  17) = (  0.3059531  0.0000000  0.0000000  )
        18           H   tau(  18) = (  0.6940469  0.0000000  0.0000000  )
        19           H   tau(  19) = (  0.5000000  0.1940469  0.0000000  )
        20           H   tau(  20) = (  0.0000000  0.3059531  0.0000000  )
        21           H   tau(  21) = (  0.1940469  0.5000000  0.0000000  )
        22           H   tau(  22) = (  0.8059531  0.5000000  0.0000000  )
        23           H   tau(  23) = (  0.0000000  0.6940469  0.0000000  )
        24           H   tau(  24) = (  0.5000000  0.8059531  0.0000000  )
        25           H   tau(  25) = (  0.5000000  0.0000000  0.1940469  )
        26           H   tau(  26) = (  0.0000000  0.5000000  0.1940469  )
        27           H   tau(  27) = (  0.0000000  0.0000000  0.3059531  )
        28           H   tau(  28) = (  0.5000000  0.5000000  0.3059531  )
        29           H   tau(  29) = (  0.1940469  0.0000000  0.5000000  )
        30           H   tau(  30) = (  0.8059531  0.0000000  0.5000000  )
        31           H   tau(  31) = (  0.0000000  0.1940469  0.5000000  )
        32           H   tau(  32) = (  0.5000000  0.3059531  0.5000000  )
        33           H   tau(  33) = (  0.3059531  0.5000000  0.5000000  )
        34           H   tau(  34) = (  0.6940469  0.5000000  0.5000000  )
        35           H   tau(  35) = (  0.5000000  0.6940469  0.5000000  )
[...]
     atom   18 type  1   force =     0.14281313   -0.00000000    0.00000000
     atom   19 type  1   force =     0.00000000    0.14282193    0.00000000
     atom   20 type  1   force =    -0.00000000   -0.14281313    0.00000000
     atom   21 type  1   force =     0.14282193   -0.00000000    0.00000000
     atom   22 type  1   force =    -0.14282193    0.00000000    0.00000000
     atom   23 type  1   force =     0.00000000    0.14281313    0.00000000
     atom   24 type  1   force =    -0.00000000   -0.14282193    0.00000000
     atom   25 type  1   force =     0.00000000    0.00000000    0.14282193
     atom   26 type  1   force =     0.00000000    0.00000000    0.14282193
     atom   27 type  1   force =     0.00000000    0.00000000   -0.14281313
     atom   28 type  1   force =    -0.00000000   -0.00000000   -0.14281555
     atom   29 type  1   force =     0.14282193    0.00000000    0.00000000
     atom   30 type  1   force =    -0.14282193   -0.00000000   -0.00000000
     atom   31 type  1   force =     0.00000000    0.14282193    0.00000000
     atom   32 type  1   force =     0.00000000   -0.14281555   -0.00000000
     atom   33 type  1   force =    -0.14281555    0.00000000   -0.00000000
     atom   34 type  1   force =     0.14281555   -0.00000000   -0.00000000
     atom   35 type  1   force =    -0.00000000    0.14281555   -0.00000000
     atom   36 type  1   force =     0.00000000   -0.14282193   -0.00000000
     atom   37 type  1   force =     0.00000000    0.00000000    0.14281313
     atom   38 type  1   force =    -0.00000000   -0.00000000    0.14281555
     atom   39 type  1   force =    -0.00000000    0.00000000   -0.14282193
     atom   40 type  1   force =     0.00000000   -0.00000000   -0.14282193
     The local contribution  to forces
     atom    1 type  2   force =     0.00000000    0.00000000    0.00000000
     atom    2 type  2   force =    -0.00000000    0.00000000    0.00000000
     atom    3 type  2   force =    -0.00000000   -0.00000000   -0.00000000
     atom    4 type  2   force =    -0.00000000   -0.00000000   -0.00000000
     atom    5 type  3   force =     0.00000000    0.00000000    0.00000000
     atom    6 type  3   force =    -0.00000000   -0.00000000    0.00000000
     atom    7 type  3   force =    -0.00003652   -0.00003652   -0.00003652
     atom    8 type  3   force =     0.00003652   -0.00003652   -0.00003652
     atom    9 type  3   force =    -0.00003652    0.00003652   -0.00003652
     atom   10 type  3   force =     0.00003652    0.00003652   -0.00003652
     atom   11 type  3   force =    -0.00000000    0.00000000   -0.00000000
     atom   12 type  3   force =     0.00000000   -0.00000000   -0.00000000
     atom   13 type  3   force =    -0.00003652   -0.00003652    0.00003652
     atom   14 type  3   force =     0.00003652   -0.00003652    0.00003652
     atom   15 type  3   force =    -0.00003652    0.00003652    0.00003652
     atom   16 type  3   force =     0.00003652    0.00003652    0.00003652
     atom   17 type  1   force =     0.13021378    0.00000000    0.00000000
     atom   18 type  1   force =    -0.13021378   -0.00000000    0.00000000
     atom   19 type  1   force =    -0.00000000   -0.13022293    0.00000000
     atom   20 type  1   force =     0.00000000    0.13021378    0.00000000
     atom   21 type  1   force =    -0.13022293   -0.00000000    0.00000000
     atom   22 type  1   force =     0.13022293   -0.00000000    0.00000000
     atom   23 type  1   force =    -0.00000000   -0.13021378    0.00000000
     atom   24 type  1   force =    -0.00000000    0.13022293    0.00000000
     atom   25 type  1   force =    -0.00000000    0.00000000   -0.13022293
     atom   26 type  1   force =     0.00000000   -0.00000000   -0.13022293
     atom   27 type  1   force =     0.00000000   -0.00000000    0.13021378
     atom   28 type  1   force =    -0.00000000   -0.00000000    0.13021642
     atom   29 type  1   force =    -0.13022293    0.00000000   -0.00000000
     atom   30 type  1   force =     0.13022293   -0.00000000   -0.00000000
     atom   31 type  1   force =     0.00000000   -0.13022293   -0.00000000
     atom   32 type  1   force =    -0.00000000    0.13021642   -0.00000000
     atom   33 type  1   force =     0.13021642   -0.00000000   -0.00000000
     atom   34 type  1   force =    -0.13021642   -0.00000000   -0.00000000
     atom   35 type  1   force =    -0.00000000   -0.13021642   -0.00000000
     atom   36 type  1   force =    -0.00000000    0.13022293   -0.00000000
     atom   37 type  1   force =     0.00000000    0.00000000   -0.13021378
     atom   38 type  1   force =    -0.00000000   -0.00000000   -0.13021642
     atom   39 type  1   force =    -0.00000000   -0.00000000    0.13022293
     atom   40 type  1   force =     0.00000000   -0.00000000    0.13022293
     The core correction contribution to forces
     atom    1 type  2   force =     0.00000000   -0.00000000   -0.00000000
     atom    2 type  2   force =    -0.00000000    0.00000000   -0.00000000
     atom    3 type  2   force =    -0.00000000   -0.00000000    0.00000000
     atom    4 type  2   force =     0.00000000    0.00000000    0.00000000
     atom    5 type  3   force =     0.00000000   -0.00000000    0.00000000
     atom    6 type  3   force =     0.00000000    0.00000000    0.00000000
     atom    7 type  3   force =    -0.00000004   -0.00000004   -0.00000004
     atom    8 type  3   force =     0.00000004   -0.00000004   -0.00000004
     atom    9 type  3   force =    -0.00000004    0.00000004   -0.00000004
     atom   10 type  3   force =     0.00000004    0.00000004   -0.00000004
     atom   11 type  3   force =     0.00000000    0.00000000    0.00000000
     atom   12 type  3   force =     0.00000000    0.00000000    0.00000000
     atom   13 type  3   force =    -0.00000004   -0.00000004    0.00000004
     atom   14 type  3   force =     0.00000004   -0.00000004    0.00000004
     atom   15 type  3   force =    -0.00000004    0.00000004    0.00000004
     atom   16 type  3   force =     0.00000004    0.00000004    0.00000004
     atom   17 type  1   force =     0.00000000    0.00000000    0.00000000
     atom   18 type  1   force =     0.00000000    0.00000000    0.00000000
     atom   19 type  1   force =     0.00000000    0.00000000    0.00000000
     atom   20 type  1   force =     0.00000000    0.00000000    0.00000000
     atom   21 type  1   force =     0.00000000    0.00000000    0.00000000
     atom   22 type  1   force =     0.00000000    0.00000000    0.00000000
     atom   23 type  1   force =     0.00000000    0.00000000    0.00000000
     atom   24 type  1   force =     0.00000000    0.00000000    0.00000000
     atom   25 type  1   force =     0.00000000    0.00000000    0.00000000
     atom   26 type  1   force =     0.00000000    0.00000000    0.00000000
     atom   27 type  1   force =     0.00000000    0.00000000    0.00000000
     atom   28 type  1   force =     0.00000000    0.00000000    0.00000000
     atom   29 type  1   force =     0.00000000    0.00000000    0.00000000
     atom   30 type  1   force =     0.00000000    0.00000000    0.00000000
     atom   31 type  1   force =     0.00000000    0.00000000    0.00000000
     atom   32 type  1   force =     0.00000000    0.00000000    0.00000000
     atom   33 type  1   force =     0.00000000    0.00000000    0.00000000
     atom   34 type  1   force =     0.00000000    0.00000000    0.00000000
     atom   35 type  1   force =     0.00000000    0.00000000    0.00000000
     atom   36 type  1   force =     0.00000000    0.00000000    0.00000000
     atom   37 type  1   force =     0.00000000    0.00000000    0.00000000
     atom   38 type  1   force =     0.00000000    0.00000000    0.00000000
     atom   39 type  1   force =     0.00000000    0.00000000    0.00000000
     atom   40 type  1   force =     0.00000000    0.00000000    0.00000000
     The Hubbard contrib.    to forces
     atom    1 type  2   force =     0.00000000    0.00000000    0.00000000
     atom    2 type  2   force =     0.00000000    0.00000000    0.00000000
     atom    3 type  2   force =     0.00000000    0.00000000    0.00000000
     atom    4 type  2   force =     0.00000000    0.00000000    0.00000000
     atom    5 type  3   force =     0.00000000    0.00000000    0.00000000
     atom    6 type  3   force =     0.00000000    0.00000000    0.00000000
     atom    7 type  3   force =     0.00000000    0.00000000    0.00000000
     atom    8 type  3   force =     0.00000000    0.00000000    0.00000000
     atom    9 type  3   force =     0.00000000    0.00000000    0.00000000
     atom   10 type  3   force =     0.00000000    0.00000000    0.00000000
     atom   11 type  3   force =     0.00000000    0.00000000    0.00000000
     atom   12 type  3   force =     0.00000000    0.00000000    0.00000000
     atom   13 type  3   force =     0.00000000    0.00000000    0.00000000
     atom   14 type  3   force =     0.00000000    0.00000000    0.00000000
     atom   15 type  3   force =     0.00000000    0.00000000    0.00000000
     atom   16 type  3   force =     0.00000000    0.00000000    0.00000000
     atom   17 type  1   force =     0.00000000    0.00000000    0.00000000
     atom   18 type  1   force =     0.00000000    0.00000000    0.00000000
     atom   19 type  1   force =     0.00000000    0.00000000    0.00000000
     atom   20 type  1   force =     0.00000000    0.00000000    0.00000000
     atom   21 type  1   force =     0.00000000    0.00000000    0.00000000
     atom   22 type  1   force =     0.00000000    0.00000000    0.00000000
     atom   23 type  1   force =     0.00000000    0.00000000    0.00000000
     atom   24 type  1   force =     0.00000000    0.00000000    0.00000000
     atom   25 type  1   force =     0.00000000    0.00000000    0.00000000
     atom   26 type  1   force =     0.00000000    0.00000000    0.00000000
     atom   27 type  1   force =     0.00000000    0.00000000    0.00000000
     atom   28 type  1   force =     0.00000000    0.00000000    0.00000000
     atom   29 type  1   force =     0.00000000    0.00000000    0.00000000
     atom   30 type  1   force =     0.00000000    0.00000000    0.00000000
     atom   31 type  1   force =     0.00000000    0.00000000    0.00000000
     atom   32 type  1   force =     0.00000000    0.00000000    0.00000000
     atom   33 type  1   force =     0.00000000    0.00000000    0.00000000
     atom   34 type  1   force =     0.00000000    0.00000000    0.00000000
     atom   35 type  1   force =     0.00000000    0.00000000    0.00000000
     atom   36 type  1   force =     0.00000000    0.00000000    0.00000000
     atom   37 type  1   force =     0.00000000    0.00000000    0.00000000
     atom   38 type  1   force =     0.00000000    0.00000000    0.00000000
     atom   39 type  1   force =     0.00000000    0.00000000    0.00000000
     atom   40 type  1   force =     0.00000000    0.00000000    0.00000000
     The SCF correction term to forces
     atom    1 type  2   force =    -0.00000000   -0.00000000   -0.00000000
     atom    2 type  2   force =     0.00000000   -0.00000000   -0.00000000
     atom    3 type  2   force =    -0.00000000    0.00000000    0.00000000
     atom    4 type  2   force =    -0.00000000    0.00000000    0.00000000
     atom    5 type  3   force =     0.00000000   -0.00000000    0.00000000
     atom    6 type  3   force =     0.00000000   -0.00000000    0.00000000
     atom    7 type  3   force =     0.00000105    0.00000105    0.00000105
     atom    8 type  3   force =    -0.00000105    0.00000105    0.00000105
     atom    9 type  3   force =     0.00000105   -0.00000105    0.00000105
     atom   10 type  3   force =    -0.00000105   -0.00000105    0.00000105
     atom   11 type  3   force =    -0.00000000   -0.00000000   -0.00000000
     atom   12 type  3   force =     0.00000000    0.00000000   -0.00000000
     atom   13 type  3   force =     0.00000105    0.00000105   -0.00000105
     atom   14 type  3   force =    -0.00000105    0.00000105   -0.00000105
     atom   15 type  3   force =     0.00000105   -0.00000105   -0.00000105
     atom   16 type  3   force =    -0.00000105   -0.00000105   -0.00000105
     atom   17 type  1   force =    -0.00000038    0.00000000    0.00000000
     atom   18 type  1   force =     0.00000038    0.00000000    0.00000000
     atom   19 type  1   force =     0.00000000    0.00000073   -0.00000000
     atom   20 type  1   force =    -0.00000000   -0.00000038    0.00000000
     atom   21 type  1   force =     0.00000073    0.00000000   -0.00000000
     atom   22 type  1   force =    -0.00000073    0.00000000    0.00000000
     atom   23 type  1   force =     0.00000000    0.00000038   -0.00000000
     atom   24 type  1   force =    -0.00000000   -0.00000073   -0.00000000
     atom   25 type  1   force =    -0.00000000   -0.00000000    0.00000073
     atom   26 type  1   force =    -0.00000000   -0.00000000    0.00000073
     atom   27 type  1   force =     0.00000000    0.00000000   -0.00000038
     atom   28 type  1   force =     0.00000000    0.00000000   -0.00000061
     atom   29 type  1   force =     0.00000073   -0.00000000   -0.00000000
     atom   30 type  1   force =    -0.00000073   -0.00000000    0.00000000
     atom   31 type  1   force =     0.00000000    0.00000073   -0.00000000
     atom   32 type  1   force =    -0.00000000   -0.00000061   -0.00000000
     atom   33 type  1   force =    -0.00000061    0.00000000   -0.00000000
     atom   34 type  1   force =     0.00000061   -0.00000000   -0.00000000
     atom   35 type  1   force =     0.00000000    0.00000061   -0.00000000
     atom   36 type  1   force =    -0.00000000   -0.00000073   -0.00000000
     atom   37 type  1   force =    -0.00000000   -0.00000000    0.00000038
     atom   38 type  1   force =    -0.00000000   -0.00000000    0.00000061
     atom   39 type  1   force =     0.00000000    0.00000000   -0.00000073
     atom   40 type  1   force =    -0.00000000    0.00000000   -0.00000073

     Total force =     0.001168     Total SCF correction =     0.000006

     Computing stress (Cartesian axis) and pressure

          total   stress  (Ry/bohr**3)                   (kbar)     P=        0.23
   0.00000158   0.00000000   0.00000000            0.23        0.00        0.00
   0.00000000   0.00000158   0.00000000            0.00        0.23        0.00
   0.00000000   0.00000000   0.00000158            0.00        0.00        0.23

     kinetic stress (kbar)   3121.20      0.00      0.00
                                0.00   3121.20      0.00
                                0.00      0.00   3121.20

     local   stress (kbar)  -3119.74     -0.00      0.00
                               -0.00  -3119.74      0.00
                                0.00      0.00  -3119.74

     nonloc. stress (kbar)   4766.43      0.00      0.00
                                0.00   4766.43      0.00
                                0.00      0.00   4766.43

     hartree stress (kbar)    637.09      0.00      0.00
                                0.00    637.09     -0.00
                                0.00     -0.00    637.09

     exc-cor stress (kbar)   6593.81     -0.00     -0.00
                               -0.00   6593.81      0.00
                               -0.00      0.00   6593.81

     corecor stress (kbar)  -7959.57      0.00      0.00
                                0.00  -7959.57     -0.00
                                0.00     -0.00  -7959.57

     ewald   stress (kbar)  -4038.99     -0.00      0.00
                               -0.00  -4038.99      0.00
                                0.00      0.00  -4038.99

     hubbard stress (kbar)      0.00      0.00      0.00
                                0.00      0.00      0.00
                                0.00      0.00      0.00

     DFT-D   stress (kbar)      0.00      0.00      0.00
                                0.00      0.00      0.00
                                0.00      0.00      0.00

     XDM     stress (kbar)      0.00      0.00      0.00
                                0.00      0.00      0.00
                                0.00      0.00      0.00

     dft-nl  stress (kbar)      0.00      0.00      0.00
                                0.00      0.00      0.00
                                0.00      0.00      0.00

     TS-vdW  stress (kbar)      0.00      0.00      0.00
                                0.00      0.00      0.00
                                0.00      0.00      0.00

     Writing output data file ./Cs3AlH6_optgeo.save/

     General routines

     Parallel routines

     PAW routines

   This run was terminated on:  15:23: 7  28Nov2023

   JOB DONE.