     Program PWSCF v.7.0 starts on 29Nov2023 at 17: 2:53

     Waiting for input...
     Reading input from standard input

     Current dimensions of program PWSCF are:
     Max number of different atomic species (ntypx) = 10
     Max number of k-points (npk) =  40000
     Max angular momentum in pseudopotentials (lmaxx) =  4

     File ./basic.update deleted, as requested

     File ./basic.bfgs deleted, as requested
     file Al_PSEUDO: wavefunction(s)  3S 3P renormalized
     file K_PSEUDO: wavefunction(s)  3S renormalized

     IMPORTANT: XC functional enforced from input :
     Exchange-correlation= PBE
                           (   1   4   3   4   0   0   0)
     Any further DFT definition will be discarded
     Please, verify this is what you really want

     Message from routine setup:
     using ibrav=0 with symmetry is DISCOURAGED, use correct ibrav instead

     Subspace diagonalization in iterative solution of the eigenvalue problem:
     a serial algorithm will be used

     Using Slab Decomposition

     bravais-lattice index     =            0
     lattice parameter (alat)  =      11.2914  a.u.
     unit-cell volume          =    2109.7269 (a.u.)^3
     number of atoms/cell      =           20
     number of atomic types    =            3
     number of electrons       =        72.00
     number of Kohn-Sham states=           43
     kinetic-energy cutoff     =      60.0000  Ry
     charge density cutoff     =     240.0000  Ry
     scf convergence threshold =      1.0E-08
     mixing beta               =       0.7000
     number of iterations used =            8  plain     mixing
     energy convergence thresh.=      1.0E-04
     force convergence thresh. =      1.0E-03
     press convergence thresh. =      5.0E-01
     Exchange-correlation= PBE
                           (   1   4   3   4   0   0   0)
     nstep                     =           50

     celldm(1)=  11.291378  celldm(2)=   0.000000  celldm(3)=   0.000000
     celldm(4)=   0.000000  celldm(5)=   0.000000  celldm(6)=   0.000000

     crystal axes: (cart. coord. in units of alat)
               a(1) = (   1.008633   0.000000   0.000043 )
               a(2) = (   0.000000   1.014584   0.000000 )
               a(3) = (  -0.994483   0.000000   1.432026 )

     reciprocal axes: (cart. coord. in units 2 pi/alat)
               b(1) = (  0.991411  0.000000  0.688494 )
               b(2) = (  0.000000  0.985625  0.000000 )
               b(3) = ( -0.000030  0.000000  0.698291 )

     PseudoPot. # 1 for H  read from file:
     ./H_PSEUDO
     MD5 check sum: f52b6d4d1c606e5624b1dc7b2218f220
     Pseudo is Ultrasoft, Zval =  1.0
     Generated using "atomic" code by A. Dal Corso  v.5.1
     Using radial grid of  929 points,  2 beta functions with:
                l(1) =   0
                l(2) =   0
     Q(r) pseudized with 0 coefficients

     PseudoPot. # 2 for Al read from file:
     ./Al_PSEUDO
     MD5 check sum: cfc449ca30b5f3223ec38ddd88ac046d
     Pseudo is Projector augmented-wave + core cor, Zval =  3.0
     Generated using "atomic" code by A. Dal Corso  v.5.1
     Shape of augmentation charge: PSQ
     Using radial grid of 1135 points,  6 beta functions with:
                l(1) =   0
                l(2) =   0
                l(3) =   1
                l(4) =   1
                l(5) =   2
                l(6) =   2
     Q(r) pseudized with 0 coefficients

     PseudoPot. # 3 for K  read from file:
     ./K_PSEUDO
     MD5 check sum: 7d58810084cac21f60fbe77ea2b688fd
     Pseudo is Projector augmented-wave + core cor, Zval =  9.0
     Generated using "atomic" code by A. Dal Corso  v.5.1
     Shape of augmentation charge: PSQ
     Using radial grid of 1165 points,  6 beta functions with:
                l(1) =   0
                l(2) =   0
                l(3) =   1
                l(4) =   1
                l(5) =   2
                l(6) =   2
     Q(r) pseudized with 0 coefficients

     atomic species   valence    mass     pseudopotential
        H              1.00     1.00750     H ( 1.00)
        Al             3.00    26.98100     Al( 1.00)
        K              9.00    39.09830     K ( 1.00)

      4 Sym. Ops., with inversion, found ( 2 have fractional translation)

   Cartesian axes

     site n.     atom                  positions (alat units)
         1           K   tau(   1) = (   0.5017445   0.5352998   0.3565927  )
         2           K   tau(   2) = (  -0.4875941   0.4792846   1.0754765  )
         3           K   tau(   3) = (   0.0096474   0.0280076   0.3594635  )
         4           K   tau(   4) = (   0.0045030   0.9865768   1.0726057  )
         5           K   tau(   5) = (  -0.4972415   0.0000000   0.7160129  )
         6           K   tau(   6) = (   0.0000000   0.5072922   0.0000000  )
         7           Al  tau(   7) = (   0.5043167   0.0000000   0.0000217  )
         8           Al  tau(   8) = (   0.0070752   0.5072922   0.7160346  )
         9           H   tau(   9) = (   0.1754207   0.7494473   0.6647412  )
        10           H   tau(  10) = (  -0.1612703   0.2651372   0.7673280  )
        11           H   tau(  11) = (   0.3359713   0.2421550   0.0513150  )
        12           H   tau(  12) = (  -0.3218208   0.7724294   1.3807542  )
        13           H   tau(  13) = (  -0.2518207   0.1741694   1.3900707  )
        14           H   tau(  14) = (   0.2659711   0.8404150   0.0419985  )
        15           H   tau(  15) = (  -0.2312704   0.6814616   0.7580114  )
        16           H   tau(  16) = (   0.2454209   0.3331228   0.6740578  )
        17           H   tau(  17) = (   0.0699948   0.5269695   1.0072792  )
        18           H   tau(  18) = (  -0.0558444   0.4876149   0.4247900  )
        19           H   tau(  19) = (  -0.5530859   0.0196773   1.1408030  )
        20           H   tau(  20) = (   0.5672363   0.9949071   0.2912662  )

     number of k points=   904  Marzari-Vanderbilt smearing, width (Ry)=  0.0050

     Number of k-points >= 100: set verbosity='high' to print them.

     Check: negative core charge=   -0.000003

     Initial potential from superposition of free atoms

     starting charge      71.8823, renormalised to      72.0000
     Starting wfcs are   68 randomized atomic wfcs
     Checking if some PAW data can be deallocated...

     Self-consistent Calculation

     iteration #  1     ecut=    60.00 Ry     beta= 0.70
     Davidson diagonalization with overlap
     ethr =  1.00E-02,  avg # of iterations =  5.9

     total energy              =    -771.14580658 Ry
     estimated scf accuracy    <       1.24685229 Ry

[...]

     iteration #  4     ecut=    60.00 Ry     beta= 0.70
     Davidson diagonalization with overlap
     c_bands:  1 eigenvalues not converged
     c_bands:  1 eigenvalues not converged
     c_bands:  1 eigenvalues not converged
     c_bands:  1 eigenvalues not converged
     c_bands:  1 eigenvalues not converged
     c_bands:  2 eigenvalues not converged
     c_bands:  1 eigenvalues not converged
     c_bands:  1 eigenvalues not converged
     c_bands:  1 eigenvalues not converged
     c_bands:  1 eigenvalues not converged
     c_bands:  1 eigenvalues not converged
     c_bands:  1 eigenvalues not converged
     c_bands:  1 eigenvalues not converged
     c_bands:  1 eigenvalues not converged
     c_bands:  1 eigenvalues not converged
     c_bands:  1 eigenvalues not converged
     c_bands:  1 eigenvalues not converged
     c_bands:  1 eigenvalues not converged
     c_bands:  1 eigenvalues not converged
     c_bands:  1 eigenvalues not converged
     c_bands:  1 eigenvalues not converged
     c_bands:  1 eigenvalues not converged
     c_bands:  1 eigenvalues not converged
     c_bands:  1 eigenvalues not converged
     c_bands:  1 eigenvalues not converged
     c_bands:  1 eigenvalues not converged
     c_bands:  1 eigenvalues not converged
     c_bands:  1 eigenvalues not converged
     c_bands:  1 eigenvalues not converged
     c_bands:  1 eigenvalues not converged
     c_bands:  1 eigenvalues not converged
     c_bands:  1 eigenvalues not converged
     c_bands:  1 eigenvalues not converged
     c_bands:  1 eigenvalues not converged
     c_bands:  2 eigenvalues not converged
     c_bands:  1 eigenvalues not converged
     c_bands:  1 eigenvalues not converged
     c_bands:  1 eigenvalues not converged
     c_bands:  1 eigenvalues not converged
     c_bands:  1 eigenvalues not converged
     c_bands:  1 eigenvalues not converged
     c_bands:  1 eigenvalues not converged
     c_bands:  2 eigenvalues not converged
     c_bands:  1 eigenvalues not converged
     c_bands:  1 eigenvalues not converged
     c_bands:  1 eigenvalues not converged
     c_bands:  1 eigenvalues not converged
     c_bands:  1 eigenvalues not converged
     c_bands:  1 eigenvalues not converged
     c_bands:  1 eigenvalues not converged
     c_bands:  1 eigenvalues not converged
     c_bands:  1 eigenvalues not converged
     c_bands:  1 eigenvalues not converged
     c_bands:  1 eigenvalues not converged
     c_bands:  1 eigenvalues not converged
     ethr =  7.36E-06,  avg # of iterations =  9.4

[...]

     End of self-consistent calculation

     Number of k-points >= 100: set verbosity='high' to print the bands.

     the Fermi energy is     4.3286 ev

!    total energy              =    -771.38333321 Ry
     estimated scf accuracy    <          8.3E-10 Ry
     smearing contrib. (-TS)   =       0.00000000 Ry
     internal energy E=F+TS    =    -771.38333321 Ry

     The total energy is F=E-TS. E is the sum of the following terms:
     one-electron contribution =    -137.20436822 Ry
     hartree contribution      =      89.52004414 Ry
     xc contribution           =     -81.44554012 Ry
     ewald contribution        =    -240.42071826 Ry
     one-center paw contrib.   =    -401.83275074 Ry

     convergence has been achieved in   8 iterations

     Forces acting on atoms (cartesian axes, Ry/au):

     atom    1 type  3   force =    -0.00003208   -0.00011991   -0.00006065
     atom    2 type  3   force =     0.00003208    0.00011991    0.00006065
     atom    3 type  3   force =     0.00003208   -0.00011991    0.00006065
     atom    4 type  3   force =    -0.00003208    0.00011991   -0.00006065
     atom    5 type  3   force =     0.00000000    0.00000000    0.00000000
     atom    6 type  3   force =     0.00000000    0.00000000   -0.00000000
     atom    7 type  2   force =     0.00000000   -0.00000000    0.00000000
     atom    8 type  2   force =    -0.00000000   -0.00000000   -0.00000000
     atom    9 type  1   force =    -0.00040529   -0.00062322    0.00006113
     atom   10 type  1   force =     0.00040529    0.00062322   -0.00006113
     atom   11 type  1   force =     0.00040529   -0.00062322   -0.00006113
     atom   12 type  1   force =    -0.00040529    0.00062322    0.00006113
     atom   13 type  1   force =    -0.00068976   -0.00037682   -0.00005347
     atom   14 type  1   force =     0.00068976    0.00037682    0.00005347
     atom   15 type  1   force =     0.00068976   -0.00037682    0.00005347
     atom   16 type  1   force =    -0.00068976    0.00037682   -0.00005347
     atom   17 type  1   force =     0.00001745   -0.00002194   -0.00078269
     atom   18 type  1   force =    -0.00001745    0.00002194    0.00078269
     atom   19 type  1   force =    -0.00001745   -0.00002194    0.00078269
     atom   20 type  1   force =     0.00001745    0.00002194   -0.00078269

     Total force =     0.002690     Total SCF correction =     0.000012

     Computing stress (Cartesian axis) and pressure

          total   stress  (Ry/bohr**3)                   (kbar)     P=       -0.32
  -0.00000190   0.00000000   0.00000026           -0.28        0.00        0.04
   0.00000000  -0.00000267   0.00000000            0.00       -0.39        0.00
   0.00000026   0.00000000  -0.00000195            0.04        0.00       -0.29

     BFGS Geometry Optimization
     Energy error            =      0.0E+00 Ry
     Gradient error          =      7.8E-04 Ry/Bohr
     Cell gradient error     =      3.9E-01 kbar

     bfgs converged in   1 scf cycles and   0 bfgs steps
     (criteria: energy <  1.0E-04 Ry, force <  1.0E-03Ry/Bohr, cell <  5.0E-01kbar)

     End of BFGS Geometry Optimization

     Final enthalpy           =    -771.3833332113 Ry
Begin final coordinates
     new unit-cell volume =   2109.72693 a.u.^3 (   312.62928 Ang^3 )
     density =      1.59687 g/cm^3

CELL_PARAMETERS (alat= 11.29137816)
   1.008633465   0.000000000   0.000043305
   0.000000000   1.014584432   0.000000000
  -0.994483038   0.000000000   1.432025900

ATOMIC_POSITIONS (crystal)
K             0.7429469400        0.5276050183        0.2489902892
K             0.2570530600        0.4723949817        0.7510097108
K             0.2570530600        0.0276050183        0.2510097108
K             0.7429469400        0.9723949817        0.7489902892
K             0.0000000000        0.0000000000        0.5000000000
K             0.0000000000        0.5000000000        0.0000000000
Al            0.5000000000        0.0000000000       -0.0000000000
Al            0.5000000000        0.5000000000        0.5000000000
H             0.6315843403        0.7386741207        0.4641772679
H             0.3684156597        0.2613258793        0.5358227321
H             0.3684156597        0.2386741207        0.0358227321
H             0.6315843403        0.7613258793        0.9641772679
H             0.7073976760        0.1716657504        0.9706808335
H             0.2926023240        0.8283342496        0.0293191665
H             0.2926023240        0.6716657504        0.5293191665
H             0.7073976760        0.3283342496        0.4706808335
H             0.7628993098        0.5193944516        0.7033714670
H             0.2371006902        0.4806055484        0.2966285330
H             0.2371006902        0.0193944516        0.7966285330
H             0.7628993098        0.9806055484        0.2033714670
End final coordinates

     Writing config-only to output data dir ./basic.save/

     Final scf calculation at the relaxed structure.
     The G-vectors are recalculated for the final unit cell
     Results may differ from those at the preceding step.

     Using Slab Decomposition

     bravais-lattice index     =            0
     lattice parameter (alat)  =      11.2914  a.u.
     unit-cell volume          =    2109.7269 (a.u.)^3
     number of atoms/cell      =           20
     number of atomic types    =            3
     number of electrons       =        72.00
     number of Kohn-Sham states=           43
     kinetic-energy cutoff     =      60.0000  Ry
     charge density cutoff     =     240.0000  Ry
     scf convergence threshold =      1.0E-08
     mixing beta               =       0.7000
     number of iterations used =            8  plain     mixing
     press convergence thresh. =      5.0E-01
     Exchange-correlation= PBE
                           (   1   4   3   4   0   0   0)

     celldm(1)=  11.291378  celldm(2)=   0.000000  celldm(3)=   0.000000
     celldm(4)=   0.000000  celldm(5)=   0.000000  celldm(6)=   0.000000

     crystal axes: (cart. coord. in units of alat)
               a(1) = (   1.008633   0.000000   0.000043 )
               a(2) = (   0.000000   1.014584   0.000000 )
               a(3) = (  -0.994483   0.000000   1.432026 )

     reciprocal axes: (cart. coord. in units 2 pi/alat)
               b(1) = (  0.991411  0.000000  0.688494 )
               b(2) = (  0.000000  0.985625  0.000000 )
               b(3) = ( -0.000030  0.000000  0.698291 )

     PseudoPot. # 1 for H  read from file:
     ./H_PSEUDO
     MD5 check sum: f52b6d4d1c606e5624b1dc7b2218f220
     Pseudo is Ultrasoft, Zval =  1.0
     Generated using "atomic" code by A. Dal Corso  v.5.1
     Using radial grid of  929 points,  2 beta functions with:
                l(1) =   0
                l(2) =   0
     Q(r) pseudized with 0 coefficients

     PseudoPot. # 2 for Al read from file:
     ./Al_PSEUDO
     MD5 check sum: cfc449ca30b5f3223ec38ddd88ac046d
     Pseudo is Projector augmented-wave + core cor, Zval =  3.0
     Generated using "atomic" code by A. Dal Corso  v.5.1
     Shape of augmentation charge: PSQ
     Using radial grid of 1135 points,  6 beta functions with:
                l(1) =   0
                l(2) =   0
                l(3) =   1
                l(4) =   1
                l(5) =   2
                l(6) =   2
     Q(r) pseudized with 0 coefficients

     PseudoPot. # 3 for K  read from file:
     ./K_PSEUDO
     MD5 check sum: 7d58810084cac21f60fbe77ea2b688fd
     Pseudo is Projector augmented-wave + core cor, Zval =  9.0
     Generated using "atomic" code by A. Dal Corso  v.5.1
     Shape of augmentation charge: PSQ
     Using radial grid of 1165 points,  6 beta functions with:
                l(1) =   0
                l(2) =   0
                l(3) =   1
                l(4) =   1
                l(5) =   2
                l(6) =   2
     Q(r) pseudized with 0 coefficients

     atomic species   valence    mass     pseudopotential
        H              1.00     1.00750     H ( 1.00)
        Al             3.00    26.98100     Al( 1.00)
        K              9.00    39.09830     K ( 1.00)

      4 Sym. Ops., with inversion, found ( 2 have fractional translation)

   Cartesian axes

     site n.     atom                  positions (alat units)
         1           K   tau(   1) = (   0.5017445   0.5352998   0.3565927  )
         2           K   tau(   2) = (  -0.4875941   0.4792846   1.0754765  )
         3           K   tau(   3) = (   0.0096474   0.0280076   0.3594635  )
         4           K   tau(   4) = (   0.0045030   0.9865768   1.0726057  )
         5           K   tau(   5) = (  -0.4972415   0.0000000   0.7160129  )
         6           K   tau(   6) = (   0.0000000   0.5072922   0.0000000  )
         7           Al  tau(   7) = (   0.5043167   0.0000000   0.0000217  )
         8           Al  tau(   8) = (   0.0070752   0.5072922   0.7160346  )
         9           H   tau(   9) = (   0.1754207   0.7494473   0.6647412  )
        10           H   tau(  10) = (  -0.1612703   0.2651372   0.7673280  )
        11           H   tau(  11) = (   0.3359713   0.2421550   0.0513150  )
        12           H   tau(  12) = (  -0.3218208   0.7724294   1.3807542  )
        13           H   tau(  13) = (  -0.2518207   0.1741694   1.3900707  )
        14           H   tau(  14) = (   0.2659711   0.8404150   0.0419985  )
        15           H   tau(  15) = (  -0.2312704   0.6814616   0.7580114  )
        16           H   tau(  16) = (   0.2454209   0.3331228   0.6740578  )
        17           H   tau(  17) = (   0.0699948   0.5269695   1.0072792  )
        18           H   tau(  18) = (  -0.0558444   0.4876149   0.4247900  )
        19           H   tau(  19) = (  -0.5530859   0.0196773   1.1408030  )
        20           H   tau(  20) = (   0.5672363   0.9949071   0.2912662  )

     number of k points=   904  Marzari-Vanderbilt smearing, width (Ry)=  0.0050

     Number of k-points >= 100: set verbosity='high' to print them.

     Check: negative core charge=   -0.000003

     Initial potential from superposition of free atoms

     starting charge      71.8823, renormalised to      72.0000
     Starting wfcs are   68 randomized atomic wfcs
     Checking if some PAW data can be deallocated...

     Self-consistent Calculation

[...]

     iteration #  7     ecut=    60.00 Ry     beta= 0.70
     Davidson diagonalization with overlap
     c_bands:  1 eigenvalues not converged
     c_bands:  1 eigenvalues not converged
     c_bands:  1 eigenvalues not converged
     ethr =  1.32E-09,  avg # of iterations =  3.7

     total energy              =    -771.38333320 Ry
     estimated scf accuracy    <       0.00000004 Ry

     iteration #  8     ecut=    60.00 Ry     beta= 0.70
     Davidson diagonalization with overlap
     ethr =  4.96E-11,  avg # of iterations =  3.7

     End of self-consistent calculation

     Number of k-points >= 100: set verbosity='high' to print the bands.

     the Fermi energy is     4.3295 ev

!    total energy              =    -771.38333321 Ry
     estimated scf accuracy    <          1.7E-09 Ry
     smearing contrib. (-TS)   =       0.00000000 Ry
     internal energy E=F+TS    =    -771.38333321 Ry

     The total energy is F=E-TS. E is the sum of the following terms:
     one-electron contribution =    -137.20441370 Ry
     hartree contribution      =      89.52011314 Ry
     xc contribution           =     -81.44555685 Ry
     ewald contribution        =    -240.42071826 Ry
     one-center paw contrib.   =    -401.83275754 Ry

     convergence has been achieved in   8 iterations

     Forces acting on atoms (cartesian axes, Ry/au):

     atom    1 type  3   force =    -0.00003177   -0.00012202   -0.00006034
     atom    2 type  3   force =     0.00003177    0.00012202    0.00006034
     atom    3 type  3   force =     0.00003177   -0.00012202    0.00006034
     atom    4 type  3   force =    -0.00003177    0.00012202   -0.00006034
     atom    5 type  3   force =     0.00000000   -0.00000000    0.00000000
     atom    6 type  3   force =     0.00000000    0.00000000    0.00000000
     atom    7 type  2   force =     0.00000000   -0.00000000    0.00000000
     atom    8 type  2   force =    -0.00000000   -0.00000000    0.00000000
     atom    9 type  1   force =    -0.00040560   -0.00062375    0.00006127
     atom   10 type  1   force =     0.00040560    0.00062375   -0.00006127
     atom   11 type  1   force =     0.00040560   -0.00062375   -0.00006127
     atom   12 type  1   force =    -0.00040560    0.00062375    0.00006127
     atom   13 type  1   force =    -0.00069007   -0.00037718   -0.00005327
     atom   14 type  1   force =     0.00069007    0.00037718    0.00005327
     atom   15 type  1   force =     0.00069007   -0.00037718    0.00005327
     atom   16 type  1   force =    -0.00069007    0.00037718   -0.00005327
     atom   17 type  1   force =     0.00001744   -0.00002211   -0.00078321
     atom   18 type  1   force =    -0.00001744    0.00002211    0.00078321
     atom   19 type  1   force =    -0.00001744   -0.00002211    0.00078321
     atom   20 type  1   force =     0.00001744    0.00002211   -0.00078321

     Total force =     0.002692     Total SCF correction =     0.000018

     Computing stress (Cartesian axis) and pressure

          total   stress  (Ry/bohr**3)                   (kbar)     P=       -0.31
  -0.00000187   0.00000000   0.00000026           -0.28        0.00        0.04
   0.00000000  -0.00000264   0.00000000            0.00       -0.39        0.00
   0.00000026   0.00000000  -0.00000192            0.04        0.00       -0.28

     Writing all to output data dir ./basic.save/

     General routines

     Parallel routines

   This run was terminated on:  23:37:57  29Nov2023

   JOB DONE.