     Program PWSCF v.7.0 starts on 27Nov2023 at 10:45:40

     Waiting for input...
     Reading input from standard input

     Current dimensions of program PWSCF are:
     Max number of different atomic species (ntypx) = 10
     Max number of k-points (npk) =  40000
     Max angular momentum in pseudopotentials (lmaxx) =  4
     Message from routine volume:
     axis vectors are left-handed
     file K_PSEUDO: wavefunction(s)  3S renormalized

     IMPORTANT: XC functional enforced from input :
     Exchange-correlation= PBE
                           (   1   4   3   4   0   0   0)
     Any further DFT definition will be discarded
     Please, verify this is what you really want

     Message from routine setup:
     using ibrav=0 with symmetry is DISCOURAGED, use correct ibrav instead

     Subspace diagonalization in iterative solution of the eigenvalue problem:
     a serial algorithm will be used

     Using Slab Decomposition

     bravais-lattice index     =            0
     lattice parameter (alat)  =      10.7195  a.u.
     unit-cell volume          =     307.9358 (a.u.)^3
     number of atoms/cell      =            2
     number of atomic types    =            2
     number of electrons       =        10.00
     number of Kohn-Sham states=            9
     kinetic-energy cutoff     =      60.0000  Ry
     charge density cutoff     =     240.0000  Ry
     scf convergence threshold =      1.0E-08
     mixing beta               =       0.7000
     number of iterations used =            8  plain     mixing
     energy convergence thresh.=      1.0E-04
     force convergence thresh. =      1.0E-03
     press convergence thresh. =      5.0E-01
     Exchange-correlation= PBE
                           (   1   4   3   4   0   0   0)
     nstep                     =           50

     celldm(1)=  10.719471  celldm(2)=   0.000000  celldm(3)=   0.000000
     celldm(4)=   0.000000  celldm(5)=   0.000000  celldm(6)=   0.000000

     crystal axes: (cart. coord. in units of alat)
               a(1) = (   0.500000   0.500000   0.000000 )
               a(2) = (   0.500000   0.000000   0.500000 )
               a(3) = (   0.000000   0.500000   0.500000 )

     reciprocal axes: (cart. coord. in units 2 pi/alat)
               b(1) = (  1.000000  1.000000 -1.000000 )
               b(2) = (  1.000000 -1.000000  1.000000 )
               b(3) = ( -1.000000  1.000000  1.000000 )

     PseudoPot. # 1 for K  read from file:
     ./K_PSEUDO
     MD5 check sum: 7d58810084cac21f60fbe77ea2b688fd
     Pseudo is Projector augmented-wave + core cor, Zval =  9.0
     Generated using "atomic" code by A. Dal Corso  v.5.1
     Shape of augmentation charge: PSQ
     Using radial grid of 1165 points,  6 beta functions with:
                l(1) =   0
                l(2) =   0
                l(3) =   1
                l(4) =   1
                l(5) =   2
                l(6) =   2
     Q(r) pseudized with 0 coefficients

     PseudoPot. # 2 for H  read from file:
     ./H_PSEUDO
     MD5 check sum: f52b6d4d1c606e5624b1dc7b2218f220
     Pseudo is Ultrasoft, Zval =  1.0
     Generated using "atomic" code by A. Dal Corso  v.5.1
     Using radial grid of  929 points,  2 beta functions with:
                l(1) =   0
                l(2) =   0
     Q(r) pseudized with 0 coefficients

     atomic species   valence    mass     pseudopotential
        K              9.00    39.09830     K ( 1.00)
        H              1.00     1.00750     H ( 1.00)

     48 Sym. Ops., with inversion, found

   Cartesian axes

     site n.     atom                  positions (alat units)
         1           K   tau(   1) = (   0.0000000   0.0000000   0.0000000  )
         2           H   tau(   2) = (   0.5000000   0.5000000   0.5000000  )

     number of k points=   120  Marzari-Vanderbilt smearing, width (Ry)=  0.0050

     Number of k-points >= 100: set verbosity='high' to print them.

     Check: negative core charge=   -0.000004

     Initial potential from superposition of free atoms

     starting charge       9.9812, renormalised to      10.0000
     Starting wfcs are    9 randomized atomic wfcs
     Checking if some PAW data can be deallocated...

     Self-consistent Calculation

     iteration #  1     ecut=    60.00 Ry     beta= 0.70
     Davidson diagonalization with overlap
     ethr =  1.00E-02,  avg # of iterations =  6.8

     total energy              =    -114.17686373 Ry
     estimated scf accuracy    <       0.13776341 Ry

[...]

     iteration #  4     ecut=    60.00 Ry     beta= 0.70
     Davidson diagonalization with overlap
     c_bands:  1 eigenvalues not converged
     c_bands:  1 eigenvalues not converged
     c_bands:  1 eigenvalues not converged
     c_bands:  1 eigenvalues not converged
     c_bands:  1 eigenvalues not converged
     c_bands:  1 eigenvalues not converged
     c_bands:  1 eigenvalues not converged
     c_bands:  1 eigenvalues not converged
     ethr =  1.81E-06,  avg # of iterations =  7.3

[...]

     End of self-consistent calculation

     Number of k-points >= 100: set verbosity='high' to print the bands.

     the Fermi energy is     2.2681 ev

!    total energy              =    -114.20709043 Ry
     estimated scf accuracy    <          1.5E-09 Ry
     smearing contrib. (-TS)   =       0.00000000 Ry
     internal energy E=F+TS    =    -114.20709043 Ry

     The total energy is F=E-TS. E is the sum of the following terms:
     one-electron contribution =     -24.88044479 Ry
     hartree contribution      =      14.95573506 Ry
     xc contribution           =     -11.96126643 Ry
     ewald contribution        =     -36.90236820 Ry
     one-center paw contrib.   =     -55.41874606 Ry

     convergence has been achieved in   6 iterations

     Forces acting on atoms (cartesian axes, Ry/au):

     atom    1 type  1   force =     0.00000000    0.00000000    0.00000000
     atom    2 type  2   force =     0.00000000    0.00000000   -0.00000000

     Total force =     0.000000     Total SCF correction =     0.000000

     Computing stress (Cartesian axis) and pressure

          total   stress  (Ry/bohr**3)                   (kbar)     P=        1.49
   0.00001015   0.00000000   0.00000000            1.49        0.00        0.00
   0.00000000   0.00001015   0.00000000            0.00        1.49        0.00
   0.00000000   0.00000000   0.00001015            0.00        0.00        1.49

     BFGS Geometry Optimization
     Energy error            =      0.0E+00 Ry
     Gradient error          =      2.5E-32 Ry/Bohr
     Cell gradient error     =      1.5E+00 kbar

     number of scf cycles    =   1
     number of bfgs steps    =   0

     enthalpy           new  =    -114.2070904271 Ry

     new trust radius        =       0.0008909100 bohr
     Message from routine volume:
     axis vectors are left-handed
     new conv_thr            =       0.0000000100 Ry

     new unit-cell volume =    308.17032 a.u.^3 (    45.66613 Ang^3 )
     density =      1.45835 g/cm^3

CELL_PARAMETERS (alat= 10.71947144)
   0.500126924   0.500126924   0.000000000
   0.500126924   0.000000000   0.500126924
   0.000000000   0.500126924   0.500126924

ATOMIC_POSITIONS (crystal)
K            -0.0000000000        0.0000000000        0.0000000000
H             0.5000000000        0.5000000000        0.5000000000

     Writing config-only to output data dir ./basic.save/
     NEW-OLD atomic charge density approx. for the potential

     Check: negative core charge=   -0.000004
     extrapolated charge   10.00760, renormalised to   10.00000

[...]

     Threshold (ethr) on eigenvalues was too large:
     Diagonalizing with lowered threshold

     Davidson diagonalization with overlap
     ethr =  4.40E-08,  avg # of iterations =  1.3

[...]

     Energy error            =      2.3E-06 Ry
     Gradient error          =      1.0E-33 Ry/Bohr
     Cell gradient error     =      1.4E+00 kbar

[...]

     enthalpy           old  =    -114.2070904271 Ry
     enthalpy           new  =    -114.2070927085 Ry

     CASE: enthalpy          _new < enthalpy          _old

     WARNING: bfgs curvature condition failed, Theta= 0.884
     new trust radius        =       0.0009801254 bohr
     Message from routine volume:
     axis vectors are left-handed
     new conv_thr            =            1.0E-10 Ry

[...]

     Threshold (ethr) on eigenvalues was too large:
     Diagonalizing with lowered threshold

     Davidson diagonalization with overlap
     ethr =  5.18E-08,  avg # of iterations =  1.4

[...]

     Energy error            =      3.7E-06 Ry
     Gradient error          =      2.5E-32 Ry/Bohr
     Cell gradient error     =      8.0E-01 kbar

     number of scf cycles    =   5
     number of bfgs steps    =   4

     enthalpy           old  =    -114.2070980734 Ry
     enthalpy           new  =    -114.2071017696 Ry

     CASE: enthalpy          _new < enthalpy          _old

     new trust radius        =       0.0033101156 bohr
     Message from routine volume:
     axis vectors are left-handed
     new conv_thr            =            1.0E-10 Ry

     new unit-cell volume =    310.27205 a.u.^3 (    45.97757 Ang^3 )
     density =      1.44847 g/cm^3

[...]

ATOMIC_POSITIONS (crystal)
K            -0.0000000000        0.0000000000        0.0000000000
H             0.5000000000        0.5000000000        0.5000000000

     Writing config-only to output data dir ./basic.save/
     NEW-OLD atomic charge density approx. for the potential

     Check: negative core charge=   -0.000004
     extrapolated charge   10.02812, renormalised to   10.00000

[...]

     Energy error            =      3.5E-06 Ry
     Gradient error          =      4.9E-32 Ry/Bohr
     Cell gradient error     =      4.0E-01 kbar
     Message from routine volume:
     axis vectors are left-handed

     bfgs converged in   6 scf cycles and   5 bfgs steps
     (criteria: energy <  1.0E-04 Ry, force <  1.0E-03Ry/Bohr, cell <  5.0E-01kbar)

     End of BFGS Geometry Optimization

     Final enthalpy           =    -114.2071053163 Ry

     File ./basic.bfgs deleted, as requested
Begin final coordinates
     new unit-cell volume =    310.27205 a.u.^3 (    45.97757 Ang^3 )
     density =      1.44847 g/cm^3

CELL_PARAMETERS (alat= 10.71947144)
   0.501261307   0.501261307   0.000000000
   0.501261307   0.000000000   0.501261307
   0.000000000   0.501261307   0.501261307

ATOMIC_POSITIONS (crystal)
K            -0.0000000000        0.0000000000        0.0000000000
H             0.5000000000        0.5000000000        0.5000000000
End final coordinates

     Writing config-only to output data dir ./basic.save/

     Final scf calculation at the relaxed structure.
     The G-vectors are recalculated for the final unit cell
     Results may differ from those at the preceding step.

     Using Slab Decomposition

     bravais-lattice index     =            0
     lattice parameter (alat)  =      10.7195  a.u.
     unit-cell volume          =     310.2721 (a.u.)^3
     number of atoms/cell      =            2
     number of atomic types    =            2
     number of electrons       =        10.00
     number of Kohn-Sham states=            9
     kinetic-energy cutoff     =      60.0000  Ry
     charge density cutoff     =     240.0000  Ry
     scf convergence threshold =      1.0E-10
     mixing beta               =       0.7000
     number of iterations used =            8  plain     mixing
     press convergence thresh. =      5.0E-01
     Exchange-correlation= PBE
                           (   1   4   3   4   0   0   0)

     celldm(1)=  10.719471  celldm(2)=   0.000000  celldm(3)=   0.000000
     celldm(4)=   0.000000  celldm(5)=   0.000000  celldm(6)=   0.000000

     crystal axes: (cart. coord. in units of alat)
               a(1) = (   0.501261   0.501261   0.000000 )
               a(2) = (   0.501261   0.000000   0.501261 )
               a(3) = (   0.000000   0.501261   0.501261 )

     reciprocal axes: (cart. coord. in units 2 pi/alat)
               b(1) = (  0.997484  0.997484 -0.997484 )
               b(2) = (  0.997484 -0.997484  0.997484 )
               b(3) = ( -0.997484  0.997484  0.997484 )

     PseudoPot. # 1 for K  read from file:
     ./K_PSEUDO
     MD5 check sum: 7d58810084cac21f60fbe77ea2b688fd
     Pseudo is Projector augmented-wave + core cor, Zval =  9.0
     Generated using "atomic" code by A. Dal Corso  v.5.1
     Shape of augmentation charge: PSQ
     Using radial grid of 1165 points,  6 beta functions with:
                l(1) =   0
                l(2) =   0
                l(3) =   1
                l(4) =   1
                l(5) =   2
                l(6) =   2
     Q(r) pseudized with 0 coefficients

     PseudoPot. # 2 for H  read from file:
     ./H_PSEUDO
     MD5 check sum: f52b6d4d1c606e5624b1dc7b2218f220
     Pseudo is Ultrasoft, Zval =  1.0
     Generated using "atomic" code by A. Dal Corso  v.5.1
     Using radial grid of  929 points,  2 beta functions with:
                l(1) =   0
                l(2) =   0
     Q(r) pseudized with 0 coefficients

     atomic species   valence    mass     pseudopotential
        K              9.00    39.09830     K ( 1.00)
        H              1.00     1.00750     H ( 1.00)

     48 Sym. Ops., with inversion, found

   Cartesian axes

     site n.     atom                  positions (alat units)
         1           K   tau(   1) = (  -0.0000000  -0.0000000   0.0000000  )
         2           H   tau(   2) = (   0.5012613   0.5012613   0.5012613  )

     number of k points=   120  Marzari-Vanderbilt smearing, width (Ry)=  0.0050

     Number of k-points >= 100: set verbosity='high' to print them.

     Check: negative core charge=   -0.000004

     Initial potential from superposition of free atoms

     starting charge       9.9812, renormalised to      10.0000
     Starting wfcs are    9 randomized atomic wfcs
     Checking if some PAW data can be deallocated...

     Self-consistent Calculation

[...]

     iteration #  4     ecut=    60.00 Ry     beta= 0.70
     Davidson diagonalization with overlap
     c_bands:  1 eigenvalues not converged
     c_bands:  1 eigenvalues not converged
     c_bands:  1 eigenvalues not converged
     ethr =  1.78E-06,  avg # of iterations =  6.3

[...]

     total energy              =    -114.20711135 Ry
     estimated scf accuracy    <          1.4E-10 Ry

     iteration #  8     ecut=    60.00 Ry     beta= 0.70
     Davidson diagonalization with overlap
     ethr =  1.36E-12,  avg # of iterations =  2.5

     End of self-consistent calculation

     Number of k-points >= 100: set verbosity='high' to print the bands.

     the Fermi energy is     2.1954 ev

!    total energy              =    -114.20711135 Ry
     estimated scf accuracy    <          7.0E-12 Ry
     smearing contrib. (-TS)   =       0.00000000 Ry
     internal energy E=F+TS    =    -114.20711135 Ry

     The total energy is F=E-TS. E is the sum of the following terms:
     one-electron contribution =     -25.03043794 Ry
     hartree contribution      =      15.01064872 Ry
     xc contribution           =     -11.95909564 Ry
     ewald contribution        =     -36.80951199 Ry
     one-center paw contrib.   =     -55.41871451 Ry

     convergence has been achieved in   8 iterations

     Forces acting on atoms (cartesian axes, Ry/au):

     atom    1 type  1   force =     0.00000000   -0.00000000    0.00000000
     atom    2 type  2   force =    -0.00000000    0.00000000   -0.00000000

     Total force =     0.000000     Total SCF correction =     0.000000

     Computing stress (Cartesian axis) and pressure

          total   stress  (Ry/bohr**3)                   (kbar)     P=        0.42
   0.00000283   0.00000000  -0.00000000            0.42        0.00       -0.00
   0.00000000   0.00000283   0.00000000            0.00        0.42        0.00
  -0.00000000  -0.00000000   0.00000283           -0.00       -0.00        0.42

     Writing all to output data dir ./basic.save/

     General routines

     Parallel routines

   This run was terminated on:  10:53:29  27Nov2023

   JOB DONE.