     Program PWSCF v.7.1 starts on  8Dec2023 at 17:33:50

     Reading input from Li3BH6_P1_opt.in

     Current dimensions of program PWSCF are:
     Max number of different atomic species (ntypx) = 10
     Max number of k-points (npk) =  40000
     Max angular momentum in pseudopotentials (lmaxx) =  4

     File ./Li3BH6_P1.update deleted, as requested

     File ./Li3BH6_P1.bfgs deleted, as requested

     IMPORTANT: XC functional enforced from input :
     Exchange-correlation= PBE
                           (   1   4   3   4   0   0   0)
     Any further DFT definition will be discarded
     Please, verify this is what you really want

     R & G space division:  proc/nbgrp/npool/nimage =      28
     Subspace diagonalization in iterative solution of the eigenvalue problem:
     a serial algorithm will be used

     Using Slab Decomposition

     bravais-lattice index     =            0
     lattice parameter (alat)  =       9.5787  a.u.
     unit-cell volume          =    1284.0519 (a.u.)^3
     number of atoms/cell      =           20
     number of atomic types    =            3
     number of electrons       =        36.00
     number of Kohn-Sham states=           22
     kinetic-energy cutoff     =     150.0000  Ry
     charge density cutoff     =     600.0000  Ry
     scf convergence threshold =      1.0E-08
     mixing beta               =       0.7000
     number of iterations used =            8  plain     mixing
     energy convergence thresh.=      1.0E-04
     force convergence thresh. =      1.0E-03
     press convergence thresh. =      5.0E-01
     Exchange-correlation= PBE
                           (   1   4   3   4   0   0   0)
     nstep                     =           50

     celldm(1)=   9.578700  celldm(2)=   0.000000  celldm(3)=   0.000000
     celldm(4)=   0.000000  celldm(5)=   0.000000  celldm(6)=   0.000000

     crystal axes: (cart. coord. in units of alat)
               a(1) = (   0.969046   0.059953  -0.039432 )
               a(2) = (  -0.006352   1.127001  -0.101345 )
               a(3) = (  -0.133595  -0.341639   1.372823 )

     reciprocal axes: (cart. coord. in units 2 pi/alat)
               b(1) = (  1.035254  0.015235  0.104536 )
               b(2) = ( -0.047112  0.906929  0.221112 )
               b(3) = (  0.026258  0.067389  0.747752 )

     PseudoPot. # 1 for B  read from file:
     /scratch/antwerpen/209/vsc20922/pseudos/b_pbe_v1.4.uspp.F.UPF
     MD5 check sum: cc6de2960df11db49a60e589f9ebb39b
     Pseudo is Ultrasoft + core correction, Zval =  3.0
     Generated by new atomic code, or converted to UPF format
     Using radial grid of  781 points,  4 beta functions with:
                l(1) =   0
                l(2) =   0
                l(3) =   1
                l(4) =   1
     Q(r) pseudized with  8 coefficients,  rinner =    1.100   1.100   1.100

     PseudoPot. # 2 for Li read from file:
     /scratch/antwerpen/209/vsc20922/pseudos/li_pbe_v1.4.uspp.F.UPF
     MD5 check sum: e912e257baa3777c20ea3d68f190483c
     Pseudo is Ultrasoft, Zval =  3.0
     Generated by new atomic code, or converted to UPF format
     Using radial grid of  751 points,  5 beta functions with:
                l(1) =   0
                l(2) =   0
                l(3) =   0
                l(4) =   1
                l(5) =   1
     Q(r) pseudized with 10 coefficients,  rinner =    1.150   1.150   1.150

     PseudoPot. # 3 for H  read from file:
     /scratch/antwerpen/209/vsc20922/pseudos/H.pbe-rrkjus_psl.1.0.0.UPF
     MD5 check sum: f52b6d4d1c606e5624b1dc7b2218f220
     Pseudo is Ultrasoft, Zval =  1.0
     Generated using "atomic" code by A. Dal Corso  v.5.1
     Using radial grid of  929 points,  2 beta functions with:
                l(1) =   0
                l(2) =   0
     Q(r) pseudized with 0 coefficients

     atomic species   valence    mass     pseudopotential
        B              3.00    10.81350     B ( 1.00)
        Li             3.00     6.96750     Li( 1.00)
        H              1.00     1.00750     H ( 1.00)

     No symmetry found

   Cartesian axes

     site n.     atom                  positions (alat units)
         1           B   tau(   1) = (   0.2988376   0.2381446   0.7075219  )
         2           B   tau(   2) = (   0.0698212  -0.1788511   1.2531788  )
         3           Li  tau(   3) = (   0.4432283   0.9704197   0.8289072  )
         4           Li  tau(   4) = (   0.4745596   0.5791872   0.4069021  )
         5           Li  tau(   5) = (  -0.0050486   0.5802211   0.7140462  )
         6           Li  tau(   6) = (   0.8039431   0.1079646   0.6730973  )
         7           Li  tau(   7) = (   0.1438908   0.2990783   1.1768472  )
         8           Li  tau(   8) = (   0.3401623   0.0055828   0.3166576  )
         9           H   tau(   9) = (   0.3477838   0.7822875   0.1358082  )
        10           H   tau(  10) = (   0.4263136   0.2092640   0.9180928  )
        11           H   tau(  11) = (   0.1582691   0.7824265   0.9987704  )
        12           H   tau(  12) = (   0.2261945   0.0020936   0.6614659  )
        13           H   tau(  13) = (   0.8850423   0.0309944   1.1011684  )
        14           H   tau(  14) = (   0.6675602   0.4937201   1.0309563  )
        15           H   tau(  15) = (   0.7469121   0.5833080   0.1248303  )
        16           H   tau(  16) = (   0.6934287   0.5776472   1.1529928  )
        17           H   tau(  17) = (   1.0470251   0.1088936   0.0124046  )
        18           H   tau(  18) = (   0.3887743   0.2871049  -0.0227320  )
        19           H   tau(  19) = (  -0.1329270   0.4398989   0.2522817  )
        20           H   tau(  20) = (   0.6881229   0.8494193   0.5946359  )

     number of k points=   172  Marzari-Vanderbilt smearing, width (Ry)=  0.0050

     Number of k-points >= 100: set verbosity='high' to print them.

     Initial potential from superposition of free atoms

     starting charge      33.2949, renormalised to      36.0000
     Starting wfcs are   50 randomized atomic wfcs

     Self-consistent Calculation

     iteration #  1     ecut=   150.00 Ry     beta= 0.70
     Davidson diagonalization with overlap
     ethr =  1.00E-02,  avg # of iterations =  2.0

     total energy              =    -113.43748172 Ry
     estimated scf accuracy    <       1.35522376 Ry

[...]

     iteration #  5     ecut=   150.00 Ry     beta= 0.70
     Davidson diagonalization with overlap
     c_bands:  1 eigenvalues not converged
     c_bands:  1 eigenvalues not converged
     c_bands:  1 eigenvalues not converged
     c_bands:  1 eigenvalues not converged
     c_bands:  1 eigenvalues not converged
     c_bands:  1 eigenvalues not converged
     c_bands:  1 eigenvalues not converged
     c_bands:  1 eigenvalues not converged
     c_bands:  1 eigenvalues not converged
     c_bands:  1 eigenvalues not converged
     c_bands:  1 eigenvalues not converged
     c_bands:  1 eigenvalues not converged
     ethr =  1.35E-05,  avg # of iterations = 10.4

[...]

     End of self-consistent calculation

     Number of k-points >= 100: set verbosity='high' to print the bands.

     the Fermi energy is     1.7904 ev

!    total energy              =    -113.81435635 Ry
     estimated scf accuracy    <          1.0E-09 Ry
     smearing contrib. (-TS)   =       0.00000000 Ry
     internal energy E=F+TS    =    -113.81435635 Ry

     The total energy is F=E-TS. E is the sum of the following terms:
     one-electron contribution =     -64.81207409 Ry
     hartree contribution      =      30.62132071 Ry
     xc contribution           =     -34.92265159 Ry
     ewald contribution        =     -44.70095139 Ry

     convergence has been achieved in  12 iterations

     Forces acting on atoms (cartesian axes, Ry/au):

     atom    1 type  1   force =    -0.00030301   -0.00101984   -0.00031982
     atom    2 type  1   force =     0.00002063    0.00010962   -0.00076594
     atom    3 type  2   force =    -0.00215101    0.00008762   -0.00051545
     atom    4 type  2   force =     0.00104668   -0.00093791    0.00098332
     atom    5 type  2   force =    -0.00167076    0.00355622   -0.00021786
     atom    6 type  2   force =     0.00027762   -0.00073073    0.00045832
     atom    7 type  2   force =     0.00110448   -0.00013020    0.00196455
     atom    8 type  2   force =     0.00130225   -0.00048615   -0.00065330
     atom    9 type  3   force =     0.00024150   -0.00142306   -0.00215437
     atom   10 type  3   force =    -0.00021994    0.00188951    0.00064918
     atom   11 type  3   force =    -0.00388937    0.00062477    0.00238871
     atom   12 type  3   force =    -0.00074420    0.00024956   -0.00046570
     atom   13 type  3   force =     0.00228956   -0.00017146   -0.00038650
     atom   14 type  3   force =     0.00004025    0.00061663    0.00156158
     atom   15 type  3   force =     0.00143973    0.00065178    0.00131866
     atom   16 type  3   force =     0.00033446   -0.00130543   -0.00005300
     atom   17 type  3   force =     0.00319817    0.00144178   -0.00199352
     atom   18 type  3   force =    -0.00098851   -0.00155975   -0.00070476
     atom   19 type  3   force =    -0.00167503   -0.00069193   -0.00041918
     atom   20 type  3   force =     0.00034651   -0.00077103   -0.00067492

     Total force =     0.010265     Total SCF correction =     0.000021

     Computing stress (Cartesian axis) and pressure

          total   stress  (Ry/bohr**3)                   (kbar)     P=       -1.02
  -0.00002662   0.00000844   0.00000905           -3.92        1.24        1.33
   0.00000844   0.00000405   0.00000932            1.24        0.60        1.37
   0.00000905   0.00000932   0.00000179            1.33        1.37        0.26

     BFGS Geometry Optimization
     Energy error            =      0.0E+00 Ry
     Gradient error          =      3.9E-03 Ry/Bohr
     Cell gradient error     =      3.9E+00 kbar

     number of scf cycles    =   1
     number of bfgs steps    =   0

     enthalpy           new  =    -113.8143563523 Ry

     new trust radius        =       0.0052601714 bohr
     new conv_thr            =       0.0000000100 Ry

     new unit-cell volume =   1283.38436 a.u.^3 (   190.17794 Ang^3 )
     density =      0.65942 g/cm^3

CELL_PARAMETERS (alat=  9.57870047)
   0.968404960   0.060154172  -0.039200415
  -0.006132899   1.127090017  -0.101088187
  -0.133267398  -0.341381919   1.372774616

ATOMIC_POSITIONS (crystal)
B             0.3869245862        0.3582406437        0.5529128732
B             0.2005542246        0.1115914463        0.9267882977
Li            0.5600509959        1.0425085726        0.6968051107
Li            0.5427718547        0.5928236701        0.3558265673
Li            0.0780794362        0.6846814260        0.5729006452
Li            0.9043266071        0.2088107206        0.5317264479
Li            0.2766835576        0.5247068363        0.9040777874
Li            0.3854743000        0.0589868128        0.2460385416
H             0.3861599129        0.7229372380        0.1632229806
H             0.5404909624        0.3728995725        0.7118649255
H             0.2797832575        0.9231226559        0.8038952790
H             0.3032625142        0.1375171263        0.5006560041
H             1.0320702449        0.2298589293        0.8487033737
H             0.8064105062        0.6443701264        0.8218256914
H             0.7953506292        0.5215165560        0.1523744334
H             0.8472379782        0.7460303107        0.9192749331
H             1.0872184807        0.0522484445        0.0439696799
H             0.4043608141        0.2368821377        0.0124895297
H            -0.1047253768        0.4609351047        0.2147558899
H             0.7875125142        0.8693346693        0.5198930087

     Writing config-only to output data dir ./Li3BH6_P1.save/
     NEW-OLD atomic charge density approx. for the potential
     extrapolated charge   35.98268, renormalised to   36.00000

[...]

     Threshold (ethr) on eigenvalues was too large:
     Diagonalizing with lowered threshold

     Davidson diagonalization with overlap
     ethr =  3.59E-08,  avg # of iterations =  4.0

[...]

     Energy error            =      1.3E-04 Ry
     Gradient error          =      3.2E-03 Ry/Bohr
     Cell gradient error     =      3.1E+00 kbar

[...]

     enthalpy           old  =    -113.8143563523 Ry
     enthalpy           new  =    -113.8144841685 Ry

     CASE: enthalpy          _new < enthalpy          _old

[...]

     Threshold (ethr) on eigenvalues was too large:
     Diagonalizing with lowered threshold

     Davidson diagonalization with overlap
     ethr =  5.00E-08,  avg # of iterations =  4.0

[...]

     number of scf cycles    =  32
     number of bfgs steps    =  31

     enthalpy           old  =    -113.8167606374 Ry
     enthalpy           new  =    -113.8167890549 Ry

     CASE: enthalpy          _new < enthalpy          _old

     new trust radius        =       0.0176798533 bohr
     new conv_thr            =            1.0E-10 Ry

     new unit-cell volume =   1285.37400 a.u.^3 (   190.47277 Ang^3 )
     density =      0.65840 g/cm^3

[...]

ATOMIC_POSITIONS (crystal)
B             0.3799229716        0.3632957558        0.5471254527
B             0.2066017991        0.1123271401        0.9262303011
Li            0.5272619624        1.0395866581        0.6849189092
Li            0.5359397683        0.5903560062        0.3501904257
Li            0.0613651211        0.6867722335        0.5667412758
Li            0.8958428457        0.2165500353        0.5380273002
Li            0.2857179826        0.5245992492        0.9004181856
Li            0.4013775950        0.0524430091        0.2414677032
H             0.3887147564        0.7183115249        0.1564469069
H             0.5410030777        0.3683428357        0.7001876713
H             0.2577736780        0.9167423743        0.8011721147
H             0.2905299942        0.1456707312        0.4914349739
H             1.0424982203        0.2399662591        0.8554371472
H             0.8213566282        0.6456893040        0.8395646317
H             0.8226320772        0.5349379970        0.1724931002
H             0.8539659693        0.7404297311        0.9401295832
H             1.0995090978        0.0666425131        0.0530957925
H             0.4283591543        0.2171325377       -0.0063200184
H            -0.1137675250        0.4450603183        0.2250325826
H             0.7733928260        0.8751467861        0.5162079608

     Writing config-only to output data dir ./Li3BH6_P1.save/
     NEW-OLD atomic charge density approx. for the potential
     extrapolated charge   35.98858, renormalised to   36.00000

[...]

     Energy error            =      1.9E-05 Ry
     Gradient error          =      7.0E-04 Ry/Bohr
     Cell gradient error     =      3.7E-01 kbar

     bfgs converged in  33 scf cycles and  32 bfgs steps
     (criteria: energy <  1.0E-04 Ry, force <  1.0E-03 Ry/Bohr, cell <  5.0E-01 kbar)

     End of BFGS Geometry Optimization

     Final enthalpy           =    -113.8168075635 Ry

     File ./Li3BH6_P1.bfgs deleted, as requested
Begin final coordinates
     new unit-cell volume =   1285.37400 a.u.^3 (   190.47277 Ang^3 )
     density =      0.65840 g/cm^3

CELL_PARAMETERS (alat=  9.57870047)
   0.957793774   0.060973849  -0.032370541
  -0.006054132   1.133885489  -0.097523604
  -0.122351083  -0.338488325   1.378863157

ATOMIC_POSITIONS (crystal)
B             0.3799229716        0.3632957558        0.5471254527
B             0.2066017991        0.1123271401        0.9262303011
Li            0.5272619624        1.0395866581        0.6849189092
Li            0.5359397683        0.5903560062        0.3501904257
Li            0.0613651211        0.6867722335        0.5667412758
Li            0.8958428457        0.2165500353        0.5380273002
Li            0.2857179826        0.5245992492        0.9004181856
Li            0.4013775950        0.0524430091        0.2414677032
H             0.3887147564        0.7183115249        0.1564469069
H             0.5410030777        0.3683428357        0.7001876713
H             0.2577736780        0.9167423743        0.8011721147
H             0.2905299942        0.1456707312        0.4914349739
H             1.0424982203        0.2399662591        0.8554371472
H             0.8213566282        0.6456893040        0.8395646317
H             0.8226320772        0.5349379970        0.1724931002
H             0.8539659693        0.7404297311        0.9401295832
H             1.0995090978        0.0666425131        0.0530957925
H             0.4283591543        0.2171325377       -0.0063200184
H            -0.1137675250        0.4450603183        0.2250325826
H             0.7733928260        0.8751467861        0.5162079608
End final coordinates

     Writing config-only to output data dir ./Li3BH6_P1.save/

     Final scf calculation at the relaxed structure.
     The G-vectors are recalculated for the final unit cell
     Results may differ from those at the preceding step.

     Using Slab Decomposition

     bravais-lattice index     =            0
     lattice parameter (alat)  =       9.5787  a.u.
     unit-cell volume          =    1285.3740 (a.u.)^3
     number of atoms/cell      =           20
     number of atomic types    =            3
     number of electrons       =        36.00
     number of Kohn-Sham states=           22
     kinetic-energy cutoff     =     150.0000  Ry
     charge density cutoff     =     600.0000  Ry
     scf convergence threshold =      1.0E-10
     mixing beta               =       0.7000
     number of iterations used =            8  plain     mixing
     press convergence thresh. =      5.0E-01
     Exchange-correlation= PBE
                           (   1   4   3   4   0   0   0)

     celldm(1)=   9.578700  celldm(2)=   0.000000  celldm(3)=   0.000000
     celldm(4)=   0.000000  celldm(5)=   0.000000  celldm(6)=   0.000000

     crystal axes: (cart. coord. in units of alat)
               a(1) = (   0.957794   0.060974  -0.032371 )
               a(2) = (  -0.006054   1.133885  -0.097524 )
               a(3) = (  -0.122351  -0.338488   1.378863 )

     reciprocal axes: (cart. coord. in units 2 pi/alat)
               b(1) = (  1.046437  0.013866  0.096258 )
               b(2) = ( -0.049993  0.900283  0.216569 )
               b(3) = (  0.021031  0.064000  0.742812 )

     PseudoPot. # 1 for B  read from file:
     /scratch/antwerpen/209/vsc20922/pseudos/b_pbe_v1.4.uspp.F.UPF
     MD5 check sum: cc6de2960df11db49a60e589f9ebb39b
     Pseudo is Ultrasoft + core correction, Zval =  3.0
     Generated by new atomic code, or converted to UPF format
     Using radial grid of  781 points,  4 beta functions with:
                l(1) =   0
                l(2) =   0
                l(3) =   1
                l(4) =   1
     Q(r) pseudized with  8 coefficients,  rinner =    1.100   1.100   1.100

     PseudoPot. # 2 for Li read from file:
     /scratch/antwerpen/209/vsc20922/pseudos/li_pbe_v1.4.uspp.F.UPF
     MD5 check sum: e912e257baa3777c20ea3d68f190483c
     Pseudo is Ultrasoft, Zval =  3.0
     Generated by new atomic code, or converted to UPF format
     Using radial grid of  751 points,  5 beta functions with:
                l(1) =   0
                l(2) =   0
                l(3) =   0
                l(4) =   1
                l(5) =   1
     Q(r) pseudized with 10 coefficients,  rinner =    1.150   1.150   1.150

     PseudoPot. # 3 for H  read from file:
     /scratch/antwerpen/209/vsc20922/pseudos/H.pbe-rrkjus_psl.1.0.0.UPF
     MD5 check sum: f52b6d4d1c606e5624b1dc7b2218f220
     Pseudo is Ultrasoft, Zval =  1.0
     Generated using "atomic" code by A. Dal Corso  v.5.1
     Using radial grid of  929 points,  2 beta functions with:
                l(1) =   0
                l(2) =   0
     Q(r) pseudized with 0 coefficients

     atomic species   valence    mass     pseudopotential
        B              3.00    10.81350     B ( 1.00)
        Li             3.00     6.96750     Li( 1.00)
        H              1.00     1.00750     H ( 1.00)

     No symmetry found

   Cartesian axes

     site n.     atom                  positions (alat units)
         1           B   tau(   1) = (   0.2947470   0.2499056   0.7066829  )
         2           B   tau(   2) = (   0.0838766  -0.1735547   1.2595025  )
         3           Li  tau(   3) = (   0.4149139   0.9790844   0.8259575  )
         4           Li  tau(   4) = (   0.4668995   0.5835390   0.4079424  )
         5           Li  tau(   5) = (  -0.0147241   0.5906274   0.7124957  )
         6           Li  tau(   6) = (   0.7908935   0.1180500   0.6917484  )
         7           Li  tau(   7) = (   0.1603158   0.3074758   1.1811438  )
         8           Li  tau(   8) = (   0.3545756   0.0022039   0.3148437  )
         9           H   tau(   9) = (   0.3488184   0.7852290   0.1330836  )
        10           H   tau(  10) = (   0.4302707   0.2136403   0.9120283  )
        11           H   tau(  11) = (   0.1433197   0.7840109   1.0069584  )
        12           H   tau(  12) = (   0.2172583   0.0165437   0.6540106  )
        13           H   tau(  13) = (   0.8923819   0.0461039   1.1223822  )
        14           H   tau(  14) = (   0.6800595   0.4980362   1.0680870  )
        15           H   tau(  15) = (   0.7635686   0.5983306   0.1590463  )
        16           H   tau(  16) = (   0.6984148   0.5734092   1.1964573  )
        17           H   tau(  17) = (   1.0462032   0.1246340   0.0311209  )
        18           H   tau(  18) = (   0.4097384   0.2744614  -0.0437562  )
        19           H   tau(  19) = (  -0.1391933   0.4215397   0.2705680  )
        20           H   tau(  20) = (   0.6722940   0.8647426   0.6013975  )

     number of k points=   172  Marzari-Vanderbilt smearing, width (Ry)=  0.0050

     Number of k-points >= 100: set verbosity='high' to print them.

     Initial potential from superposition of free atoms

     starting charge      33.2949, renormalised to      36.0000
     Starting wfcs are   50 randomized atomic wfcs

     Self-consistent Calculation

[...]

     iteration #  5     ecut=   150.00 Ry     beta= 0.70
     Davidson diagonalization with overlap
     c_bands:  1 eigenvalues not converged
     c_bands:  1 eigenvalues not converged
     c_bands:  1 eigenvalues not converged
     c_bands:  1 eigenvalues not converged
     c_bands:  1 eigenvalues not converged
     c_bands:  1 eigenvalues not converged
     c_bands:  1 eigenvalues not converged
     c_bands:  1 eigenvalues not converged
     c_bands:  1 eigenvalues not converged
     c_bands:  1 eigenvalues not converged
     c_bands:  1 eigenvalues not converged
     ethr =  1.24E-05,  avg # of iterations = 11.2

[...]

     total energy              =    -113.81680751 Ry
     estimated scf accuracy    <          2.2E-10 Ry

     iteration # 12     ecut=   150.00 Ry     beta= 0.70
     Davidson diagonalization with overlap
     ethr =  6.16E-13,  avg # of iterations =  5.6

     End of self-consistent calculation

     Number of k-points >= 100: set verbosity='high' to print the bands.

     the Fermi energy is     1.7751 ev

!    total energy              =    -113.81680751 Ry
     estimated scf accuracy    <          4.0E-11 Ry
     smearing contrib. (-TS)   =       0.00000000 Ry
     internal energy E=F+TS    =    -113.81680751 Ry

     The total energy is F=E-TS. E is the sum of the following terms:
     one-electron contribution =     -64.87504256 Ry
     hartree contribution      =      30.64123803 Ry
     xc contribution           =     -34.92918977 Ry
     ewald contribution        =     -44.65381321 Ry

     convergence has been achieved in  12 iterations

     Forces acting on atoms (cartesian axes, Ry/au):

     atom    1 type  1   force =    -0.00020515   -0.00017382    0.00013610
     atom    2 type  1   force =     0.00031166    0.00020046   -0.00021370
     atom    3 type  2   force =    -0.00024199   -0.00001699    0.00007180
     atom    4 type  2   force =     0.00001562   -0.00046974    0.00025437
     atom    5 type  2   force =     0.00040283   -0.00042852    0.00035136
     atom    6 type  2   force =     0.00048575    0.00022587   -0.00022054
     atom    7 type  2   force =     0.00005658    0.00036639    0.00039699
     atom    8 type  2   force =    -0.00013296    0.00009559   -0.00016911
     atom    9 type  3   force =     0.00041015   -0.00003916   -0.00035132
     atom   10 type  3   force =    -0.00000352    0.00064439   -0.00024456
     atom   11 type  3   force =    -0.00066292    0.00011063   -0.00047938
     atom   12 type  3   force =    -0.00003777   -0.00005974    0.00000224
     atom   13 type  3   force =    -0.00022463   -0.00015272   -0.00048873
     atom   14 type  3   force =     0.00001139   -0.00017231    0.00011365
     atom   15 type  3   force =     0.00025621   -0.00069756    0.00066296
     atom   16 type  3   force =     0.00007093   -0.00048577   -0.00004440
     atom   17 type  3   force =    -0.00028162    0.00042645   -0.00039452
     atom   18 type  3   force =     0.00015636    0.00026065    0.00044413
     atom   19 type  3   force =    -0.00036813    0.00036361    0.00000915
     atom   20 type  3   force =    -0.00001877    0.00000232    0.00016351

     Total force =     0.002414     Total SCF correction =     0.000004

     Computing stress (Cartesian axis) and pressure

          total   stress  (Ry/bohr**3)                   (kbar)     P=        0.04
   0.00000250   0.00000063   0.00000142            0.37        0.09        0.21
   0.00000063  -0.00000256  -0.00000038            0.09       -0.38       -0.06
   0.00000142  -0.00000038   0.00000081            0.21       -0.06        0.12

     Writing all to output data dir ./Li3BH6_P1.save/

     General routines

     Parallel routines

   This run was terminated on:  18:58:45   8Dec2023

   JOB DONE.