     Program PWSCF v.7.1 starts on  8Dec2023 at 20:47:17

     Reading input from Li5B3H14_sod.in

     Current dimensions of program PWSCF are:
     Max number of different atomic species (ntypx) = 10
     Max number of k-points (npk) =  40000
     Max angular momentum in pseudopotentials (lmaxx) =  4

     File ./Li5B3H14_sod.update deleted, as requested

     File ./Li5B3H14_sod.bfgs deleted, as requested

     IMPORTANT: XC functional enforced from input :
     Exchange-correlation= PBE
                           (   1   4   3   4   0   0   0)
     Any further DFT definition will be discarded
     Please, verify this is what you really want

     Message from routine setup:
     using ibrav=0 with symmetry is DISCOURAGED, use correct ibrav instead

     R & G space division:  proc/nbgrp/npool/nimage =      28
     Subspace diagonalization in iterative solution of the eigenvalue problem:
     a serial algorithm will be used

     Using Slab Decomposition

     bravais-lattice index     =            0
     lattice parameter (alat)  =      12.6114  a.u.
     unit-cell volume          =    3067.3055 (a.u.)^3
     number of atoms/cell      =           44
     number of atomic types    =            3
     number of electrons       =        76.00
     number of Kohn-Sham states=           46
     kinetic-energy cutoff     =     150.0000  Ry
     charge density cutoff     =     600.0000  Ry
     scf convergence threshold =      1.0E-08
     mixing beta               =       0.7000
     number of iterations used =            8  plain     mixing
     energy convergence thresh.=      1.0E-04
     force convergence thresh. =      1.0E-03
     press convergence thresh. =      5.0E-01
     Exchange-correlation= PBE
                           (   1   4   3   4   0   0   0)
     nstep                     =           50

     celldm(1)=  12.611352  celldm(2)=   0.000000  celldm(3)=   0.000000
     celldm(4)=   0.000000  celldm(5)=   0.000000  celldm(6)=   0.000000

     crystal axes: (cart. coord. in units of alat)
               a(1) = (   1.000000   0.000000   0.000000 )
               a(2) = (   0.000000   1.000000   0.000000 )
               a(3) = (   0.000000   0.000000   1.529228 )

     reciprocal axes: (cart. coord. in units 2 pi/alat)
               b(1) = (  1.000000  0.000000  0.000000 )
               b(2) = (  0.000000  1.000000  0.000000 )
               b(3) = (  0.000000  0.000000  0.653925 )

     PseudoPot. # 1 for B  read from file:
     /scratch/antwerpen/209/vsc20922/pseudos/b_pbe_v1.4.uspp.F.UPF
     MD5 check sum: cc6de2960df11db49a60e589f9ebb39b
     Pseudo is Ultrasoft + core correction, Zval =  3.0
     Generated by new atomic code, or converted to UPF format
     Using radial grid of  781 points,  4 beta functions with:
                l(1) =   0
                l(2) =   0
                l(3) =   1
                l(4) =   1
     Q(r) pseudized with  8 coefficients,  rinner =    1.100   1.100   1.100

     PseudoPot. # 2 for Li read from file:
     /scratch/antwerpen/209/vsc20922/pseudos/li_pbe_v1.4.uspp.F.UPF
     MD5 check sum: e912e257baa3777c20ea3d68f190483c
     Pseudo is Ultrasoft, Zval =  3.0
     Generated by new atomic code, or converted to UPF format
     Using radial grid of  751 points,  5 beta functions with:
                l(1) =   0
                l(2) =   0
                l(3) =   0
                l(4) =   1
                l(5) =   1
     Q(r) pseudized with 10 coefficients,  rinner =    1.150   1.150   1.150

     PseudoPot. # 3 for H  read from file:
     /scratch/antwerpen/209/vsc20922/pseudos/H.pbe-rrkjus_psl.1.0.0.UPF
     MD5 check sum: f52b6d4d1c606e5624b1dc7b2218f220
     Pseudo is Ultrasoft, Zval =  1.0
     Generated using "atomic" code by A. Dal Corso  v.5.1
     Using radial grid of  929 points,  2 beta functions with:
                l(1) =   0
                l(2) =   0
     Q(r) pseudized with 0 coefficients

     atomic species   valence    mass     pseudopotential
        B              3.00    10.81350     B ( 1.00)
        Li             3.00     6.96750     Li( 1.00)
        H              1.00     1.00750     H ( 1.00)

     16 Sym. Ops., with inversion, found ( 8 have fractional translation)

   Cartesian axes

     site n.     atom                  positions (alat units)
         1           B   tau(   1) = (   0.0000000   0.5000000   0.0000000  )
         2           B   tau(   2) = (   0.5000000   0.0000000   0.7646138  )
         3           B   tau(   3) = (   0.0000000   0.5000000   0.7646138  )
         4           B   tau(   4) = (   0.5000000   0.0000000   0.0000000  )
         5           B   tau(   5) = (   0.0000000   0.0000000   0.0000000  )
         6           B   tau(   6) = (   0.5000000   0.5000000   0.7646138  )
         7           Li  tau(   7) = (   0.2126529   0.2873471   0.3823069  )
         8           Li  tau(   8) = (   0.2873471   0.7873471   0.3823069  )
         9           Li  tau(   9) = (   0.2873471   0.7873471   1.1469206  )
        10           Li  tau(  10) = (   0.2126529   0.2873471   1.1469206  )
        11           Li  tau(  11) = (   0.7873471   0.7126529   0.3823069  )
        12           Li  tau(  12) = (   0.7873471   0.7126529   1.1469206  )
        13           Li  tau(  13) = (   0.7126529   0.2126529   0.3823069  )
        14           Li  tau(  14) = (   0.7126529   0.2126529   1.1469206  )
        15           Li  tau(  15) = (   0.0000000   0.0000000   0.7646138  )
        16           Li  tau(  16) = (   0.5000000   0.5000000   0.0000000  )
        17           H   tau(  17) = (   0.0437980   0.6799493   0.5849086  )
        18           H   tau(  18) = (   0.4562020   0.1799493   0.1797052  )
        19           H   tau(  19) = (   0.8200507   0.4562020   0.1797052  )
        20           H   tau(  20) = (   0.4562020   0.1799493   1.3495223  )
        21           H   tau(  21) = (   0.8200507   0.4562020   1.3495223  )
        22           H   tau(  22) = (   0.9562020   0.3200507   0.5849086  )
        23           H   tau(  23) = (   0.6799493   0.9562020   0.5849086  )
        24           H   tau(  24) = (   0.9562020   0.3200507   0.9443189  )
        25           H   tau(  25) = (   0.6799493   0.9562020   0.9443189  )
        26           H   tau(  26) = (   0.3200507   0.0437980   0.5849086  )
        27           H   tau(  27) = (   0.0437980   0.6799493   0.9443189  )
        28           H   tau(  28) = (   0.3200507   0.0437980   0.9443189  )
        29           H   tau(  29) = (   0.5437980   0.8200507   0.1797052  )
        30           H   tau(  30) = (   0.1799493   0.5437980   0.1797052  )
        31           H   tau(  31) = (   0.5437980   0.8200507   1.3495223  )
        32           H   tau(  32) = (   0.1799493   0.5437980   1.3495223  )
        33           H   tau(  33) = (   0.0751217   0.2476266   0.0000000  )
        34           H   tau(  34) = (   0.4248783   0.7476266   0.7646138  )
        35           H   tau(  35) = (   0.2523734   0.4248783   0.7646138  )
        36           H   tau(  36) = (   0.9248783   0.7523734   0.0000000  )
        37           H   tau(  37) = (   0.2476266   0.9248783   0.0000000  )
        38           H   tau(  38) = (   0.7523734   0.0751217   0.0000000  )
        39           H   tau(  39) = (   0.5751217   0.2523734   0.7646138  )
        40           H   tau(  40) = (   0.7476266   0.5751217   0.7646138  )
        41           H   tau(  41) = (   0.0000000   0.0000000   0.2607407  )
        42           H   tau(  42) = (   0.5000000   0.5000000   0.5038731  )
        43           H   tau(  43) = (   0.5000000   0.5000000   1.0253544  )
        44           H   tau(  44) = (   0.0000000   0.0000000   1.2684868  )

     number of k points=    40  Marzari-Vanderbilt smearing, width (Ry)=  0.0050
                       cart. coord. in units 2pi/alat
        k(    1) = (   0.0000000   0.0000000   0.0000000), wk =   0.0058309
        k(    2) = (   0.0000000   0.0000000   0.0934178), wk =   0.0116618
        k(    3) = (   0.0000000   0.0000000   0.1868357), wk =   0.0116618
        k(    4) = (   0.0000000   0.0000000   0.2802535), wk =   0.0116618
        k(    5) = (   0.0000000   0.1428571   0.0000000), wk =   0.0233236
        k(    6) = (   0.0000000   0.1428571   0.0934178), wk =   0.0466472
        k(    7) = (   0.0000000   0.1428571   0.1868357), wk =   0.0466472
        k(    8) = (   0.0000000   0.1428571   0.2802535), wk =   0.0466472
        k(    9) = (   0.0000000   0.2857143   0.0000000), wk =   0.0233236
        k(   10) = (   0.0000000   0.2857143   0.0934178), wk =   0.0466472
        k(   11) = (   0.0000000   0.2857143   0.1868357), wk =   0.0466472
        k(   12) = (   0.0000000   0.2857143   0.2802535), wk =   0.0466472
        k(   13) = (   0.0000000   0.4285714   0.0000000), wk =   0.0233236
        k(   14) = (   0.0000000   0.4285714   0.0934178), wk =   0.0466472
        k(   15) = (   0.0000000   0.4285714   0.1868357), wk =   0.0466472
        k(   16) = (   0.0000000   0.4285714   0.2802535), wk =   0.0466472
        k(   17) = (   0.1428571   0.1428571   0.0000000), wk =   0.0233236
        k(   18) = (   0.1428571   0.1428571   0.0934178), wk =   0.0466472
        k(   19) = (   0.1428571   0.1428571   0.1868357), wk =   0.0466472
        k(   20) = (   0.1428571   0.1428571   0.2802535), wk =   0.0466472
        k(   21) = (   0.1428571   0.2857143   0.0000000), wk =   0.0466472
        k(   22) = (   0.1428571   0.2857143   0.0934178), wk =   0.0932945
        k(   23) = (   0.1428571   0.2857143   0.1868357), wk =   0.0932945
        k(   24) = (   0.1428571   0.2857143   0.2802535), wk =   0.0932945
        k(   25) = (   0.1428571   0.4285714   0.0000000), wk =   0.0466472
        k(   26) = (   0.1428571   0.4285714   0.0934178), wk =   0.0932945
        k(   27) = (   0.1428571   0.4285714   0.1868357), wk =   0.0932945
        k(   28) = (   0.1428571   0.4285714   0.2802535), wk =   0.0932945
        k(   29) = (   0.2857143   0.2857143   0.0000000), wk =   0.0233236
        k(   30) = (   0.2857143   0.2857143   0.0934178), wk =   0.0466472
        k(   31) = (   0.2857143   0.2857143   0.1868357), wk =   0.0466472
        k(   32) = (   0.2857143   0.2857143   0.2802535), wk =   0.0466472
        k(   33) = (   0.2857143   0.4285714   0.0000000), wk =   0.0466472
        k(   34) = (   0.2857143   0.4285714   0.0934178), wk =   0.0932945
        k(   35) = (   0.2857143   0.4285714   0.1868357), wk =   0.0932945
        k(   36) = (   0.2857143   0.4285714   0.2802535), wk =   0.0932945
        k(   37) = (   0.4285714   0.4285714   0.0000000), wk =   0.0233236
        k(   38) = (   0.4285714   0.4285714   0.0934178), wk =   0.0466472
        k(   39) = (   0.4285714   0.4285714   0.1868357), wk =   0.0466472
        k(   40) = (   0.4285714   0.4285714   0.2802535), wk =   0.0466472

     Initial potential from superposition of free atoms

     starting charge      71.4906, renormalised to      76.0000
     Starting wfcs are  102 randomized atomic wfcs

     Self-consistent Calculation

     iteration #  1     ecut=   150.00 Ry     beta= 0.70
[...]
H             0.4498572421        0.7459073910        0.5000000000
H             0.2540926090        0.4498572421        0.5000000000
H             0.9498572421        0.7540926090       -0.0000000000
H             0.2459073910        0.9498572421       -0.0000000000
H             0.7540926090        0.0501427579        0.0000000000
H             0.5501427579        0.2540926090        0.5000000000
H             0.7459073910        0.5501427579        0.5000000000
H             0.0000000000        0.0000000000        0.1642143153
H             0.5000000000        0.5000000000        0.3357856847
H             0.5000000000        0.5000000000        0.6642143153
H             0.0000000000        0.0000000000        0.8357856847
End final coordinates

     Writing config-only to output data dir ./Li5B3H14_sod.save/

     Final scf calculation at the relaxed structure.
     The G-vectors are recalculated for the final unit cell
     Results may differ from those at the preceding step.

     Using Slab Decomposition

     bravais-lattice index     =            0
     lattice parameter (alat)  =      12.6114  a.u.
     unit-cell volume          =    1850.3666 (a.u.)^3
     number of atoms/cell      =           44
     number of atomic types    =            3
     number of electrons       =        76.00
     number of Kohn-Sham states=           46
     kinetic-energy cutoff     =     150.0000  Ry
     charge density cutoff     =     600.0000  Ry
     scf convergence threshold =      1.0E-10
     mixing beta               =       0.7000
     number of iterations used =            8  plain     mixing
     press convergence thresh. =      5.0E-01
     Exchange-correlation= PBE
                           (   1   4   3   4   0   0   0)

     celldm(1)=  12.611352  celldm(2)=   0.000000  celldm(3)=   0.000000
     celldm(4)=   0.000000  celldm(5)=   0.000000  celldm(6)=   0.000000

     crystal axes: (cart. coord. in units of alat)
               a(1) = (   0.850334   0.000000   0.000000 )
               a(2) = (   0.000000   0.850334   0.000000 )
               a(3) = (   0.000000   0.000000   1.275833 )

     reciprocal axes: (cart. coord. in units 2 pi/alat)
               b(1) = (  1.176009  0.000000  0.000000 )
               b(2) = (  0.000000  1.176009  0.000000 )
               b(3) = (  0.000000  0.000000  0.783802 )

     PseudoPot. # 1 for B  read from file:
     /scratch/antwerpen/209/vsc20922/pseudos/b_pbe_v1.4.uspp.F.UPF
     MD5 check sum: cc6de2960df11db49a60e589f9ebb39b
     Pseudo is Ultrasoft + core correction, Zval =  3.0
     Generated by new atomic code, or converted to UPF format
     Using radial grid of  781 points,  4 beta functions with:
                l(1) =   0
                l(2) =   0
                l(3) =   1
                l(4) =   1
     Q(r) pseudized with  8 coefficients,  rinner =    1.100   1.100   1.100

     PseudoPot. # 2 for Li read from file:
     /scratch/antwerpen/209/vsc20922/pseudos/li_pbe_v1.4.uspp.F.UPF
     MD5 check sum: e912e257baa3777c20ea3d68f190483c
     Pseudo is Ultrasoft, Zval =  3.0
     Generated by new atomic code, or converted to UPF format
     Using radial grid of  751 points,  5 beta functions with:
                l(1) =   0
                l(2) =   0
                l(3) =   0
                l(4) =   1
                l(5) =   1
     Q(r) pseudized with 10 coefficients,  rinner =    1.150   1.150   1.150

     PseudoPot. # 3 for H  read from file:
     /scratch/antwerpen/209/vsc20922/pseudos/H.pbe-rrkjus_psl.1.0.0.UPF
     MD5 check sum: f52b6d4d1c606e5624b1dc7b2218f220
     Pseudo is Ultrasoft, Zval =  1.0
     Generated using "atomic" code by A. Dal Corso  v.5.1
     Using radial grid of  929 points,  2 beta functions with:
                l(1) =   0
                l(2) =   0
     Q(r) pseudized with 0 coefficients

     atomic species   valence    mass     pseudopotential
        B              3.00    10.81350     B ( 1.00)
        Li             3.00     6.96750     Li( 1.00)
        H              1.00     1.00750     H ( 1.00)

     16 Sym. Ops., with inversion, found ( 8 have fractional translation)

   Cartesian axes

     site n.     atom                  positions (alat units)
         1           B   tau(   1) = (   0.0000000   0.4251669   0.0000000  )
         2           B   tau(   2) = (   0.4251669   0.0000000   0.6379166  )
         3           B   tau(   3) = (   0.0000000   0.4251669   0.6379166  )
         4           B   tau(   4) = (   0.4251669   0.0000000   0.0000000  )
         5           B   tau(   5) = (   0.0000000   0.0000000   0.0000000  )
         6           B   tau(   6) = (   0.4251669   0.4251669   0.6379166  )
         7           Li  tau(   7) = (   0.1731646   0.2520023   0.3189583  )
         8           Li  tau(   8) = (   0.2520023   0.6771693   0.3189583  )
         9           Li  tau(   9) = (   0.2520023   0.6771693   0.9568749  )
        10           Li  tau(  10) = (   0.1731646   0.2520023   0.9568749  )
        11           Li  tau(  11) = (   0.6771693   0.5983315   0.3189583  )
        12           Li  tau(  12) = (   0.6771693   0.5983315   0.9568749  )
        13           Li  tau(  13) = (   0.5983315   0.1731646   0.3189583  )
        14           Li  tau(  14) = (   0.5983315   0.1731646   0.9568749  )
        15           Li  tau(  15) = (   0.0000000   0.0000000   0.6379166  )
        16           Li  tau(  16) = (   0.4251669   0.4251669  -0.0000000  )
        17           H   tau(  17) = (   0.0379790   0.5707663   0.4901549  )
        18           H   tau(  18) = (   0.3871879   0.1455993   0.1477617  )
        19           H   tau(  19) = (   0.7047346   0.3871879   0.1477617  )
        20           H   tau(  20) = (   0.3871879   0.1455993   1.1280714  )
        21           H   tau(  21) = (   0.7047346   0.3871879   1.1280714  )
        22           H   tau(  22) = (   0.8123549   0.2795676   0.4901549  )
        23           H   tau(  23) = (   0.5707663   0.8123549   0.4901549  )
        24           H   tau(  24) = (   0.8123549   0.2795676   0.7856783  )
        25           H   tau(  25) = (   0.5707663   0.8123549   0.7856783  )
        26           H   tau(  26) = (   0.2795676   0.0379790   0.4901549  )
        27           H   tau(  27) = (   0.0379790   0.5707663   0.7856783  )
        28           H   tau(  28) = (   0.2795676   0.0379790   0.7856783  )
        29           H   tau(  29) = (   0.4631460   0.7047346   0.1477617  )
        30           H   tau(  30) = (   0.1455993   0.4631460   0.1477617  )
        31           H   tau(  31) = (   0.4631460   0.7047346   1.1280714  )
        32           H   tau(  32) = (   0.1455993   0.4631460   1.1280714  )
        33           H   tau(  33) = (   0.0426381   0.2091034  -0.0000000  )
        34           H   tau(  34) = (   0.3825289   0.6342703   0.6379166  )
        35           H   tau(  35) = (   0.2160636   0.3825289   0.6379166  )
        36           H   tau(  36) = (   0.8076958   0.6412305  -0.0000000  )
        37           H   tau(  37) = (   0.2091034   0.8076958  -0.0000000  )
        38           H   tau(  38) = (   0.6412305   0.0426381   0.0000000  )
        39           H   tau(  39) = (   0.4678050   0.2160636   0.6379166  )
        40           H   tau(  40) = (   0.6342703   0.4678050   0.6379166  )
        41           H   tau(  41) = (   0.0000000   0.0000000   0.2095101  )
        42           H   tau(  42) = (   0.4251669   0.4251669   0.4284065  )
        43           H   tau(  43) = (   0.4251669   0.4251669   0.8474267  )
        44           H   tau(  44) = (   0.0000000   0.0000000   1.0663231  )

     number of k points=    40  Marzari-Vanderbilt smearing, width (Ry)=  0.0050
                       cart. coord. in units 2pi/alat
        k(    1) = (   0.0000000   0.0000000   0.0000000), wk =   0.0058309
        k(    2) = (   0.0000000   0.0000000   0.1119716), wk =   0.0116618
        k(    3) = (   0.0000000   0.0000000   0.2239433), wk =   0.0116618
        k(    4) = (   0.0000000   0.0000000   0.3359149), wk =   0.0116618
        k(    5) = (   0.0000000   0.1680012   0.0000000), wk =   0.0233236
        k(    6) = (   0.0000000   0.1680012   0.1119716), wk =   0.0466472
        k(    7) = (   0.0000000   0.1680012   0.2239433), wk =   0.0466472
        k(    8) = (   0.0000000   0.1680012   0.3359149), wk =   0.0466472
        k(    9) = (   0.0000000   0.3360025   0.0000000), wk =   0.0233236
        k(   10) = (   0.0000000   0.3360025   0.1119716), wk =   0.0466472
        k(   11) = (   0.0000000   0.3360025   0.2239433), wk =   0.0466472
        k(   12) = (   0.0000000   0.3360025   0.3359149), wk =   0.0466472
        k(   13) = (   0.0000000   0.5040037   0.0000000), wk =   0.0233236
        k(   14) = (   0.0000000   0.5040037   0.1119716), wk =   0.0466472
        k(   15) = (   0.0000000   0.5040037   0.2239433), wk =   0.0466472
        k(   16) = (   0.0000000   0.5040037   0.3359149), wk =   0.0466472
        k(   17) = (   0.1680012   0.1680012   0.0000000), wk =   0.0233236
        k(   18) = (   0.1680012   0.1680012   0.1119716), wk =   0.0466472
        k(   19) = (   0.1680012   0.1680012   0.2239433), wk =   0.0466472
        k(   20) = (   0.1680012   0.1680012   0.3359149), wk =   0.0466472
        k(   21) = (   0.1680012   0.3360025   0.0000000), wk =   0.0466472
        k(   22) = (   0.1680012   0.3360025   0.1119716), wk =   0.0932945
        k(   23) = (   0.1680012   0.3360025   0.2239433), wk =   0.0932945
        k(   24) = (   0.1680012   0.3360025   0.3359149), wk =   0.0932945
        k(   25) = (   0.1680012   0.5040037   0.0000000), wk =   0.0466472
        k(   26) = (   0.1680012   0.5040037   0.1119716), wk =   0.0932945
        k(   27) = (   0.1680012   0.5040037   0.2239433), wk =   0.0932945
        k(   28) = (   0.1680012   0.5040037   0.3359149), wk =   0.0932945
        k(   29) = (   0.3360025   0.3360025   0.0000000), wk =   0.0233236
        k(   30) = (   0.3360025   0.3360025   0.1119716), wk =   0.0466472
        k(   31) = (   0.3360025   0.3360025   0.2239433), wk =   0.0466472
        k(   32) = (   0.3360025   0.3360025   0.3359149), wk =   0.0466472
        k(   33) = (   0.3360025   0.5040037   0.0000000), wk =   0.0466472
        k(   34) = (   0.3360025   0.5040037   0.1119716), wk =   0.0932945
        k(   35) = (   0.3360025   0.5040037   0.2239433), wk =   0.0932945
        k(   36) = (   0.3360025   0.5040037   0.3359149), wk =   0.0932945
        k(   37) = (   0.5040037   0.5040037   0.0000000), wk =   0.0233236
        k(   38) = (   0.5040037   0.5040037   0.1119716), wk =   0.0466472
        k(   39) = (   0.5040037   0.5040037   0.2239433), wk =   0.0466472
        k(   40) = (   0.5040037   0.5040037   0.3359149), wk =   0.0466472

     Initial potential from superposition of free atoms

     starting charge      71.4906, renormalised to      76.0000
     Starting wfcs are  102 randomized atomic wfcs

     Self-consistent Calculation

[...]

     iteration #  5     ecut=   150.00 Ry     beta= 0.70
     Davidson diagonalization with overlap
     c_bands:  1 eigenvalues not converged
     c_bands:  1 eigenvalues not converged
     c_bands:  1 eigenvalues not converged
     c_bands:  1 eigenvalues not converged
     ethr =  1.29E-06,  avg # of iterations = 11.8

[...]

     total energy              =    -215.47902718 Ry
     estimated scf accuracy    <          1.3E-09 Ry

     iteration # 11     ecut=   150.00 Ry     beta= 0.70
     Davidson diagonalization with overlap
     ethr =  1.68E-12,  avg # of iterations =  4.2

     End of self-consistent calculation

[...]

          k = 0.5040 0.5040 0.3359 ( 57459 PWs)   bands (ev):

   -43.4782 -43.4782 -42.8830 -42.8830 -42.8807 -42.8807 -42.8793 -42.8793
   -42.8772 -42.8772  -7.9173  -7.8789  -7.4598  -7.3780  -7.1862  -7.1468
    -3.8327  -3.8315  -2.9320  -2.7924  -2.6504  -2.4755  -2.3267  -2.3156
    -1.6186  -1.6034  -1.2879  -1.2726  -0.7605  -0.7264  -0.0838  -0.0576
     0.1321   0.1496   1.5596   1.5850   3.0726   3.0753   5.2361   5.4239
     5.5558   5.6086   5.6949   5.8596   6.6951   6.8300

     the Fermi energy is     3.8076 ev

!    total energy              =    -215.47902718 Ry
     estimated scf accuracy    <          4.7E-11 Ry
     smearing contrib. (-TS)   =       0.00000000 Ry
     internal energy E=F+TS    =    -215.47902718 Ry

     The total energy is F=E-TS. E is the sum of the following terms:
     one-electron contribution =     -65.15445220 Ry
     hartree contribution      =      39.85677376 Ry
     xc contribution           =     -72.07483225 Ry
     ewald contribution        =    -118.10651649 Ry

     convergence has been achieved in  11 iterations

     Forces acting on atoms (cartesian axes, Ry/au):

     atom    1 type  1   force =     0.00000000    0.00000000   -0.00000000
     atom    2 type  1   force =     0.00000000    0.00000000   -0.00000000
     atom    3 type  1   force =     0.00000000    0.00000000   -0.00000000
     atom    4 type  1   force =     0.00000000    0.00000000   -0.00000000
     atom    5 type  1   force =     0.00000000    0.00000000   -0.00000000
     atom    6 type  1   force =     0.00000000    0.00000000   -0.00000000
     atom    7 type  2   force =    -0.00026889    0.00026889    0.00000000
     atom    8 type  2   force =     0.00026889    0.00026889    0.00000000
     atom    9 type  2   force =     0.00026889    0.00026889    0.00000000
     atom   10 type  2   force =    -0.00026889    0.00026889   -0.00000000
     atom   11 type  2   force =     0.00026889   -0.00026889    0.00000000
     atom   12 type  2   force =     0.00026889   -0.00026889   -0.00000000
     atom   13 type  2   force =    -0.00026889   -0.00026889    0.00000000
     atom   14 type  2   force =    -0.00026889   -0.00026889    0.00000000
     atom   15 type  2   force =     0.00000000    0.00000000    0.00000000
     atom   16 type  2   force =     0.00000000    0.00000000    0.00000000
     atom   17 type  3   force =     0.00062455    0.00031365    0.00045969
     atom   18 type  3   force =    -0.00062455    0.00031365   -0.00045969
     atom   19 type  3   force =    -0.00031365   -0.00062455   -0.00045969
     atom   20 type  3   force =    -0.00062455    0.00031365    0.00045969
     atom   21 type  3   force =    -0.00031365   -0.00062455    0.00045969
     atom   22 type  3   force =    -0.00062455   -0.00031365    0.00045969
     atom   23 type  3   force =     0.00031365   -0.00062455    0.00045969
     atom   24 type  3   force =    -0.00062455   -0.00031365   -0.00045969
     atom   25 type  3   force =     0.00031365   -0.00062455   -0.00045969
     atom   26 type  3   force =    -0.00031365    0.00062455    0.00045969
     atom   27 type  3   force =     0.00062455    0.00031365   -0.00045969
     atom   28 type  3   force =    -0.00031365    0.00062455   -0.00045969
     atom   29 type  3   force =     0.00062455   -0.00031365   -0.00045969
     atom   30 type  3   force =     0.00031365    0.00062455   -0.00045969
     atom   31 type  3   force =     0.00062455   -0.00031365    0.00045969
     atom   32 type  3   force =     0.00031365    0.00062455    0.00045969
     atom   33 type  3   force =     0.00057396    0.00041279    0.00000000
     atom   34 type  3   force =    -0.00057396    0.00041279   -0.00000000
     atom   35 type  3   force =    -0.00041279   -0.00057396    0.00000000
     atom   36 type  3   force =    -0.00057396   -0.00041279   -0.00000000
     atom   37 type  3   force =     0.00041279   -0.00057396    0.00000000
     atom   38 type  3   force =    -0.00041279    0.00057396    0.00000000
     atom   39 type  3   force =     0.00057396   -0.00041279    0.00000000
     atom   40 type  3   force =     0.00041279    0.00057396    0.00000000
     atom   41 type  3   force =     0.00000000    0.00000000   -0.00033678
     atom   42 type  3   force =     0.00000000    0.00000000    0.00033678
     atom   43 type  3   force =     0.00000000    0.00000000   -0.00033678
     atom   44 type  3   force =     0.00000000    0.00000000    0.00033678

     Total force =     0.004099     Total SCF correction =     0.000003

     Computing stress (Cartesian axis) and pressure

          total   stress  (Ry/bohr**3)                   (kbar)     P=       -0.25
  -0.00000241   0.00000000   0.00000000           -0.35        0.00        0.00
   0.00000000  -0.00000241   0.00000000            0.00       -0.35        0.00
   0.00000000   0.00000000  -0.00000022            0.00        0.00       -0.03

     Writing all to output data dir ./Li5B3H14_sod.save/

     General routines

     Parallel routines

   This run was terminated on:  22:20:45   8Dec2023

   JOB DONE.