     Program PWSCF v.7.1 starts on  6Dec2023 at 22:33:50

     Reading input from LiAlH4.in

     Current dimensions of program PWSCF are:
     Max number of different atomic species (ntypx) = 10
     Max number of k-points (npk) =  40000
     Max angular momentum in pseudopotentials (lmaxx) =  4
     file Al.pbe-n-kjpaw_psl.1.0.0.UPF: wavefunction(s)  3S 3P renormalized

     IMPORTANT: XC functional enforced from input :
     Exchange-correlation= PBE
                           (   1   4   3   4   0   0   0)
     Any further DFT definition will be discarded
     Please, verify this is what you really want

     Message from routine set_cutoff:
     ecutrho < 4*ecutwfc, are you sure?
     Found identity + (  0.5000 -0.5000  0.0000) symmetry
     This is a supercell, fractional translations are disabled
     Message from routine setup:
     using ibrav=0 with symmetry is DISCOURAGED, use correct ibrav instead

     K-points division:     npool     =       2
     R & G space division:  proc/nbgrp/npool/nimage =      14
     Subspace diagonalization in iterative solution of the eigenvalue problem:
     a serial algorithm will be used

     Using Slab Decomposition

     bravais-lattice index     =            0
     lattice parameter (alat)  =      12.0953  a.u.
     unit-cell volume          =    1462.4996 (a.u.)^3
     number of atoms/cell      =           24
     number of atomic types    =            3
     number of electrons       =        40.00
     number of Kohn-Sham states=           24
     kinetic-energy cutoff     =      70.0000  Ry
     charge density cutoff     =     200.0000  Ry
     scf convergence threshold =      1.0E-08
     mixing beta               =       0.7000
     number of iterations used =            8  plain     mixing
     energy convergence thresh.=      1.0E-04
     force convergence thresh. =      1.0E-03
     press convergence thresh. =      5.0E-01
     Exchange-correlation= PBE
                           (   1   4   3   4   0   0   0)
     nstep                     =           50

     celldm(1)=  12.095268  celldm(2)=   0.000000  celldm(3)=   0.000000
     celldm(4)=   0.000000  celldm(5)=   0.000000  celldm(6)=   0.000000

     crystal axes: (cart. coord. in units of alat)
               a(1) = (   1.000000   0.000000   0.000000 )
               a(2) = (   0.000000   1.629009   0.000000 )
               a(3) = (  -0.490892   0.000000   0.507371 )

     reciprocal axes: (cart. coord. in units 2 pi/alat)
               b(1) = (  1.000000  0.000000  0.967521 )
               b(2) = (  0.000000  0.613870  0.000000 )
               b(3) = (  0.000000  0.000000  1.970943 )

     PseudoPot. # 1 for Al read from file:
     /scratch/antwerpen/209/vsc20922/pseudos/Al.pbe-n-kjpaw_psl.1.0.0.UPF
     MD5 check sum: cfc449ca30b5f3223ec38ddd88ac046d
     Pseudo is Projector augmented-wave + core cor, Zval =  3.0
     Generated using "atomic" code by A. Dal Corso  v.5.1
     Shape of augmentation charge: PSQ
     Using radial grid of 1135 points,  6 beta functions with:
                l(1) =   0
                l(2) =   0
                l(3) =   1
                l(4) =   1
                l(5) =   2
                l(6) =   2
     Q(r) pseudized with 0 coefficients

     PseudoPot. # 2 for Li read from file:
     /scratch/antwerpen/209/vsc20922/pseudos/li_pbe_v1.4.uspp.F.UPF
     MD5 check sum: e912e257baa3777c20ea3d68f190483c
     Pseudo is Ultrasoft, Zval =  3.0
     Generated by new atomic code, or converted to UPF format
     Using radial grid of  751 points,  5 beta functions with:
                l(1) =   0
                l(2) =   0
                l(3) =   0
                l(4) =   1
                l(5) =   1
     Q(r) pseudized with 10 coefficients,  rinner =    1.150   1.150   1.150

     PseudoPot. # 3 for H  read from file:
     /scratch/antwerpen/209/vsc20922/pseudos/H.pbe-rrkjus_psl.1.0.0.UPF
     MD5 check sum: f52b6d4d1c606e5624b1dc7b2218f220
     Pseudo is Ultrasoft, Zval =  1.0
     Generated using "atomic" code by A. Dal Corso  v.5.1
     Using radial grid of  929 points,  2 beta functions with:
                l(1) =   0
                l(2) =   0
     Q(r) pseudized with 0 coefficients

     atomic species   valence    mass     pseudopotential
        Al             3.00    26.98100     Al( 1.00)
        Li             3.00     6.96750     Li( 1.00)
        H              1.00     1.00750     H ( 1.00)

      2 Sym. Ops., with inversion, found

   Cartesian axes

     site n.     atom                  positions (alat units)
         1           Al  tau(   1) = (   0.1318309   0.6135511   0.3805284  )
         2           Al  tau(   2) = (  -0.1227231   0.2009532   0.1268428  )
         3           Al  tau(   3) = (  -0.3681691   1.4280557   0.3805284  )
         4           Al  tau(   4) = (   0.3772769   1.0154578   0.1268428  )
         5           Li  tau(   5) = (  -0.3681691   0.5919848   0.3805282  )
         6           Li  tau(   6) = (   0.3772769   0.2225200   0.1268430  )
         7           Li  tau(   7) = (   0.1318310   1.4064889   0.3805282  )
         8           Li  tau(   8) = (  -0.1227231   1.0370242   0.1268430  )
         9           H   tau(   9) = (   0.5857558   0.4761703   0.0894734  )
        10           H   tau(  10) = (   0.4233521   0.3383345   0.4178980  )
        11           H   tau(  11) = (  -0.1596904   0.3383345   0.3431589  )
        12           H   tau(  12) = (   0.1687982   0.4761703   0.1642123  )
        13           H   tau(  13) = (   0.0966451   0.0723579   0.1613929  )
        14           H   tau(  14) = (  -0.0875372   0.7421470   0.3459785  )
        15           H   tau(  15) = (   0.3511990   0.7421470   0.4150784  )
        16           H   tau(  16) = (   0.6579087   0.0723578   0.0922927  )
        17           H   tau(  17) = (   0.0857557   1.2906744   0.0894733  )
        18           H   tau(  18) = (  -0.0766480   1.1528386   0.4178979  )
        19           H   tau(  19) = (   0.3403097   1.1528386   0.3431590  )
        20           H   tau(  20) = (   0.6687982   1.2906744   0.1642123  )
        21           H   tau(  21) = (   0.5966450   0.8868619   0.1613928  )
        22           H   tau(  22) = (   0.4124627   1.5566510   0.3459784  )
        23           H   tau(  23) = (  -0.1488009   1.5566511   0.4150785  )
        24           H   tau(  24) = (   0.1579089   0.8868619   0.0922929  )

     number of k points=    63  Marzari-Vanderbilt smearing, width (Ry)=  0.0050
                       cart. coord. in units 2pi/alat
        k(    1) = (   0.0000000   0.0000000   0.0000000), wk =   0.0160000
        k(    2) = (   0.0000000   0.0000000   0.3941887), wk =   0.0320000
        k(    3) = (   0.0000000   0.0000000   0.7883773), wk =   0.0320000
        k(    4) = (   0.0000000   0.1227740   0.0000000), wk =   0.0320000
        k(    5) = (   0.0000000   0.1227740   0.3941887), wk =   0.0320000
        k(    6) = (   0.0000000   0.1227740   0.7883773), wk =   0.0320000
        k(    7) = (   0.0000000   0.2455481   0.0000000), wk =   0.0320000
        k(    8) = (   0.0000000   0.2455481   0.3941887), wk =   0.0320000
        k(    9) = (   0.0000000   0.2455481   0.7883773), wk =   0.0320000
        k(   10) = (   0.2000000   0.0000000   0.1935041), wk =   0.0320000
        k(   11) = (   0.2000000   0.0000000   0.5876928), wk =   0.0320000
        k(   12) = (   0.2000000   0.0000000   0.9818815), wk =   0.0320000
        k(   13) = (   0.2000000   0.0000000  -0.5948732), wk =   0.0320000
        k(   14) = (   0.2000000   0.0000000  -0.2006845), wk =   0.0320000
        k(   15) = (   0.2000000   0.1227740   0.1935041), wk =   0.0320000
        k(   16) = (   0.2000000   0.1227740   0.5876928), wk =   0.0320000
        k(   17) = (   0.2000000   0.1227740   0.9818815), wk =   0.0320000
        k(   18) = (   0.2000000   0.1227740  -0.5948732), wk =   0.0320000
        k(   19) = (   0.2000000   0.1227740  -0.2006845), wk =   0.0320000
        k(   20) = (   0.2000000   0.2455481   0.1935041), wk =   0.0320000
        k(   21) = (   0.2000000   0.2455481   0.5876928), wk =   0.0320000
        k(   22) = (   0.2000000   0.2455481   0.9818815), wk =   0.0320000
        k(   23) = (   0.2000000   0.2455481  -0.5948732), wk =   0.0320000
        k(   24) = (   0.2000000   0.2455481  -0.2006845), wk =   0.0320000
        k(   25) = (   0.4000000   0.0000000   0.3870083), wk =   0.0320000
        k(   26) = (   0.4000000   0.0000000   0.7811969), wk =   0.0320000
        k(   27) = (   0.4000000   0.0000000   1.1753856), wk =   0.0320000
        k(   28) = (   0.4000000   0.0000000  -0.4013691), wk =   0.0320000
        k(   29) = (   0.4000000   0.0000000  -0.0071804), wk =   0.0320000
        k(   30) = (   0.4000000   0.1227740   0.3870083), wk =   0.0320000
        k(   31) = (   0.4000000   0.1227740   0.7811969), wk =   0.0320000
        k(   32) = (   0.4000000   0.1227740   1.1753856), wk =   0.0320000
        k(   33) = (   0.4000000   0.1227740  -0.4013691), wk =   0.0320000
        k(   34) = (   0.4000000   0.1227740  -0.0071804), wk =   0.0320000
        k(   35) = (   0.4000000   0.2455481   0.3870083), wk =   0.0320000
        k(   36) = (   0.4000000   0.2455481   0.7811969), wk =   0.0320000
        k(   37) = (   0.4000000   0.2455481   1.1753856), wk =   0.0320000
        k(   38) = (   0.4000000   0.2455481  -0.4013691), wk =   0.0320000
        k(   39) = (   0.4000000   0.2455481  -0.0071804), wk =   0.0320000
        k(   40) = (   0.0000000   0.1227740  -0.3941887), wk =   0.0320000
        k(   41) = (   0.0000000   0.1227740  -0.7883773), wk =   0.0320000
        k(   42) = (   0.0000000   0.2455481  -0.3941887), wk =   0.0320000
        k(   43) = (   0.0000000   0.2455481  -0.7883773), wk =   0.0320000
        k(   44) = (  -0.2000000   0.1227740  -0.1935041), wk =   0.0320000
        k(   45) = (  -0.2000000   0.1227740  -0.5876928), wk =   0.0320000
        k(   46) = (  -0.2000000   0.1227740  -0.9818815), wk =   0.0320000
        k(   47) = (  -0.2000000   0.1227740   0.5948732), wk =   0.0320000
        k(   48) = (  -0.2000000   0.1227740   0.2006845), wk =   0.0320000
        k(   49) = (  -0.2000000   0.2455481  -0.1935041), wk =   0.0320000
        k(   50) = (  -0.2000000   0.2455481  -0.5876928), wk =   0.0320000
        k(   51) = (  -0.2000000   0.2455481  -0.9818815), wk =   0.0320000
        k(   52) = (  -0.2000000   0.2455481   0.5948732), wk =   0.0320000
        k(   53) = (  -0.2000000   0.2455481   0.2006845), wk =   0.0320000
        k(   54) = (  -0.4000000   0.1227740  -0.3870083), wk =   0.0320000
        k(   55) = (  -0.4000000   0.1227740  -0.7811969), wk =   0.0320000
        k(   56) = (  -0.4000000   0.1227740  -1.1753856), wk =   0.0320000
        k(   57) = (  -0.4000000   0.1227740   0.4013691), wk =   0.0320000
        k(   58) = (  -0.4000000   0.1227740   0.0071804), wk =   0.0320000
        k(   59) = (  -0.4000000   0.2455481  -0.3870083), wk =   0.0320000
        k(   60) = (  -0.4000000   0.2455481  -0.7811969), wk =   0.0320000
        k(   61) = (  -0.4000000   0.2455481  -1.1753856), wk =   0.0320000
[...]
     (criteria: energy <  1.0E-04 Ry, force <  1.0E-03 Ry/Bohr, cell <  5.0E-01 kbar)

     End of BFGS Geometry Optimization

     Final enthalpy           =    -234.8068898869 Ry

     File ./LiAlH4.bfgs deleted, as requested
Begin final coordinates
     new unit-cell volume =   1448.27152 a.u.^3 (   214.61170 Ang^3 )
     density =      1.17542 g/cm^3

CELL_PARAMETERS (alat= 12.09526765)
   1.012035684  -0.000000046  -0.009038999
  -0.000000082   1.598140430  -0.000000007
  -0.501462923   0.000000022   0.510528058

ATOMIC_POSITIONS (crystal)
Al            0.5000000675        0.3752372588        0.7500001725
Al            0.0000000741        0.1247620711        0.2500001122
Al           -0.0000000741        0.8752379289        0.7499998878
Al            0.4999999325        0.6247627412        0.2499998275
Li            0.0000000796        0.3747781398        0.7500002536
Li            0.5000000748        0.1252246878        0.2500000951
Li            0.4999999252        0.8747753122        0.7499999049
Li           -0.0000000796        0.6252218602        0.2499997464
H             0.6743034140        0.2911516735        0.1772912985
H             0.8256961341        0.2088489047        0.8227108335
H             0.1743039888        0.2088488732        0.6772894161
H             0.3256967361        0.2911516501        0.3227090856
H             0.2532908098        0.0408343392        0.3290579976
H             0.2467088916        0.4591658399        0.6709396737
H             0.7532911732        0.4591658528        0.8290604527
H             0.7467092261        0.0408343353        0.1709420314
H             0.1743038659        0.7911510953        0.1772891665
H             0.3256965860        0.7088483265        0.8227087015
H             0.6743032639        0.7088483499        0.6772909144
H             0.8256960112        0.7911511268        0.3227105839
H             0.7532911084        0.5408341601        0.3290603263
H             0.7467091902        0.9591656608        0.6709420024
H             0.2532907739        0.9591656647        0.8290579686
H             0.2467088268        0.5408341472        0.1709395473
End final coordinates

     Writing config-only to output data dir ./LiAlH4.save/

     Final scf calculation at the relaxed structure.
     The G-vectors are recalculated for the final unit cell
     Results may differ from those at the preceding step.

     Using Slab Decomposition

     bravais-lattice index     =            0
     lattice parameter (alat)  =      12.0953  a.u.
     unit-cell volume          =    1448.2715 (a.u.)^3
     number of atoms/cell      =           24
     number of atomic types    =            3
     number of electrons       =        40.00
     number of Kohn-Sham states=           24
     kinetic-energy cutoff     =      70.0000  Ry
     charge density cutoff     =     200.0000  Ry
     scf convergence threshold =      1.0E-10
     mixing beta               =       0.7000
     number of iterations used =            8  plain     mixing
     press convergence thresh. =      5.0E-01
     Exchange-correlation= PBE
                           (   1   4   3   4   0   0   0)

     celldm(1)=  12.095268  celldm(2)=   0.000000  celldm(3)=   0.000000
     celldm(4)=   0.000000  celldm(5)=   0.000000  celldm(6)=   0.000000

     crystal axes: (cart. coord. in units of alat)
               a(1) = (   1.012036  -0.000000  -0.009039 )
               a(2) = (  -0.000000   1.598140  -0.000000 )
               a(3) = (  -0.501463   0.000000   0.510528 )

     reciprocal axes: (cart. coord. in units 2 pi/alat)
               b(1) = (  0.996853  0.000000  0.979152 )
               b(2) = (  0.000000  0.625727  0.000000 )
               b(3) = (  0.017649  0.000000  1.976092 )

     PseudoPot. # 1 for Al read from file:
     /scratch/antwerpen/209/vsc20922/pseudos/Al.pbe-n-kjpaw_psl.1.0.0.UPF
     MD5 check sum: cfc449ca30b5f3223ec38ddd88ac046d
     Pseudo is Projector augmented-wave + core cor, Zval =  3.0
     Generated using "atomic" code by A. Dal Corso  v.5.1
     Shape of augmentation charge: PSQ
     Using radial grid of 1135 points,  6 beta functions with:
                l(1) =   0
                l(2) =   0
                l(3) =   1
                l(4) =   1
                l(5) =   2
                l(6) =   2
     Q(r) pseudized with 0 coefficients

     PseudoPot. # 2 for Li read from file:
     /scratch/antwerpen/209/vsc20922/pseudos/li_pbe_v1.4.uspp.F.UPF
     MD5 check sum: e912e257baa3777c20ea3d68f190483c
     Pseudo is Ultrasoft, Zval =  3.0
     Generated by new atomic code, or converted to UPF format
     Using radial grid of  751 points,  5 beta functions with:
                l(1) =   0
                l(2) =   0
                l(3) =   0
                l(4) =   1
                l(5) =   1
     Q(r) pseudized with 10 coefficients,  rinner =    1.150   1.150   1.150

     PseudoPot. # 3 for H  read from file:
     /scratch/antwerpen/209/vsc20922/pseudos/H.pbe-rrkjus_psl.1.0.0.UPF
     MD5 check sum: f52b6d4d1c606e5624b1dc7b2218f220
     Pseudo is Ultrasoft, Zval =  1.0
     Generated using "atomic" code by A. Dal Corso  v.5.1
     Using radial grid of  929 points,  2 beta functions with:
                l(1) =   0
                l(2) =   0
     Q(r) pseudized with 0 coefficients

     atomic species   valence    mass     pseudopotential
        Al             3.00    26.98100     Al( 1.00)
        Li             3.00     6.96750     Li( 1.00)
        H              1.00     1.00750     H ( 1.00)

      2 Sym. Ops., with inversion, found

   Cartesian axes

     site n.     atom                  positions (alat units)
         1           Al  tau(   1) = (   0.1299206   0.5996818   0.3783766  )
         2           Al  tau(   2) = (  -0.1253657   0.1993873   0.1276321  )
         3           Al  tau(   3) = (  -0.3760973   1.3987531   0.3828960  )
         4           Al  tau(   4) = (   0.3806521   0.9984586   0.1231124  )
         5           Li  tau(   5) = (  -0.3760973   0.5989481   0.3828962  )
         6           Li  tau(   6) = (   0.3806521   0.2001266   0.1231126  )
         7           Li  tau(   7) = (   0.1299206   1.3980138   0.3783765  )
         8           Li  tau(   8) = (  -0.1253657   0.9991923   0.1276319  )
         9           H   tau(   9) = (   0.5935141   0.4653012   0.0844172  )
        10           H   tau(  10) = (   0.4230750   0.3337699   0.4125535  )
        11           H   tau(  11) = (  -0.1632337   0.3337698   0.3441997  )
        12           H   tau(  12) = (   0.1677901   0.4653012   0.1618081  )
        13           H   tau(  13) = (   0.0913289   0.0652590   0.1657038  )
        14           H   tau(  14) = (  -0.0867732   0.7338115   0.3403035  )
        15           H   tau(  15) = (   0.3466144   0.7338115   0.4164496  )
        16           H   tau(  16) = (   0.6699753   0.0652590   0.0805212  )
        17           H   tau(  17) = (   0.0874977   1.2643705   0.0889356  )
        18           H   tau(  18) = (  -0.0829414   1.1328392   0.4170719  )
        19           H   tau(  19) = (   0.3427826   1.1328392   0.3396810  )
        20           H   tau(  20) = (   0.6738064   1.2643706   0.1572893  )
        21           H   tau(  21) = (   0.5973459   0.8643289   0.1611855  )
        22           H   tau(  22) = (   0.4192437   1.5328814   0.3357852  )
        23           H   tau(  23) = (  -0.1594026   1.5328814   0.4209679  )
        24           H   tau(  24) = (   0.1639582   0.8643289   0.0850394  )

     number of k points=    63  Marzari-Vanderbilt smearing, width (Ry)=  0.0050
                       cart. coord. in units 2pi/alat
        k(    1) = (   0.0000000   0.0000000   0.0000000), wk =   0.0160000
        k(    2) = (   0.0035299   0.0000000   0.3952185), wk =   0.0320000
        k(    3) = (   0.0070598   0.0000000   0.7904369), wk =   0.0320000
        k(    4) = (   0.0000000   0.1251454   0.0000000), wk =   0.0320000
        k(    5) = (   0.0035299   0.1251454   0.3952185), wk =   0.0320000
        k(    6) = (   0.0070598   0.1251455   0.7904369), wk =   0.0320000
        k(    7) = (   0.0000000   0.2502909   0.0000000), wk =   0.0320000
        k(    8) = (   0.0035299   0.2502909   0.3952185), wk =   0.0320000
        k(    9) = (   0.0070598   0.2502909   0.7904369), wk =   0.0320000
        k(   10) = (   0.1993706   0.0000000   0.1958304), wk =   0.0320000
        k(   11) = (   0.2029004   0.0000000   0.5910489), wk =   0.0320000
        k(   12) = (   0.2064303   0.0000000   0.9862674), wk =   0.0320000
        k(   13) = (   0.1923108   0.0000000  -0.5946065), wk =   0.0320000
        k(   14) = (   0.1958407   0.0000000  -0.1993880), wk =   0.0320000
        k(   15) = (   0.1993706   0.1251455   0.1958304), wk =   0.0320000
        k(   16) = (   0.2029005   0.1251455   0.5910489), wk =   0.0320000
        k(   17) = (   0.2064303   0.1251455   0.9862674), wk =   0.0320000
        k(   18) = (   0.1923108   0.1251455  -0.5946065), wk =   0.0320000
        k(   19) = (   0.1958407   0.1251455  -0.1993880), wk =   0.0320000
        k(   20) = (   0.1993706   0.2502909   0.1958304), wk =   0.0320000
        k(   21) = (   0.2029005   0.2502909   0.5910489), wk =   0.0320000
        k(   22) = (   0.2064304   0.2502909   0.9862674), wk =   0.0320000
        k(   23) = (   0.1923108   0.2502909  -0.5946065), wk =   0.0320000
        k(   24) = (   0.1958407   0.2502909  -0.1993880), wk =   0.0320000
        k(   25) = (   0.3987411   0.0000000   0.3916609), wk =   0.0320000
        k(   26) = (   0.4022710   0.0000000   0.7868794), wk =   0.0320000
        k(   27) = (   0.4058009   0.0000000   1.1820978), wk =   0.0320000
        k(   28) = (   0.3916813   0.0000000  -0.3987760), wk =   0.0320000
        k(   29) = (   0.3952112   0.0000000  -0.0035576), wk =   0.0320000
        k(   30) = (   0.3987411   0.1251455   0.3916609), wk =   0.0320000
        k(   31) = (   0.4022710   0.1251455   0.7868794), wk =   0.0320000
        k(   32) = (   0.4058009   0.1251455   1.1820978), wk =   0.0320000
        k(   33) = (   0.3916813   0.1251455  -0.3987760), wk =   0.0320000
        k(   34) = (   0.3952112   0.1251455  -0.0035576), wk =   0.0320000
        k(   35) = (   0.3987411   0.2502909   0.3916609), wk =   0.0320000
        k(   36) = (   0.4022710   0.2502909   0.7868794), wk =   0.0320000
        k(   37) = (   0.4058009   0.2502909   1.1820978), wk =   0.0320000
        k(   38) = (   0.3916813   0.2502909  -0.3987760), wk =   0.0320000
        k(   39) = (   0.3952112   0.2502909  -0.0035576), wk =   0.0320000
        k(   40) = (  -0.0035299   0.1251454  -0.3952185), wk =   0.0320000
        k(   41) = (  -0.0070598   0.1251454  -0.7904369), wk =   0.0320000
        k(   42) = (  -0.0035299   0.2502909  -0.3952185), wk =   0.0320000
        k(   43) = (  -0.0070598   0.2502909  -0.7904369), wk =   0.0320000
        k(   44) = (  -0.1993705   0.1251454  -0.1958304), wk =   0.0320000
        k(   45) = (  -0.2029004   0.1251454  -0.5910489), wk =   0.0320000
        k(   46) = (  -0.2064303   0.1251454  -0.9862674), wk =   0.0320000
        k(   47) = (  -0.1923108   0.1251454   0.5946065), wk =   0.0320000
        k(   48) = (  -0.1958407   0.1251454   0.1993880), wk =   0.0320000
        k(   49) = (  -0.1993705   0.2502909  -0.1958304), wk =   0.0320000
        k(   50) = (  -0.2029004   0.2502909  -0.5910489), wk =   0.0320000
        k(   51) = (  -0.2064303   0.2502909  -0.9862674), wk =   0.0320000
        k(   52) = (  -0.1923108   0.2502909   0.5946065), wk =   0.0320000
        k(   53) = (  -0.1958406   0.2502909   0.1993880), wk =   0.0320000
        k(   54) = (  -0.3987411   0.1251454  -0.3916609), wk =   0.0320000
        k(   55) = (  -0.4022710   0.1251454  -0.7868794), wk =   0.0320000
        k(   56) = (  -0.4058009   0.1251454  -1.1820978), wk =   0.0320000
        k(   57) = (  -0.3916813   0.1251454   0.3987760), wk =   0.0320000
        k(   58) = (  -0.3952112   0.1251454   0.0035576), wk =   0.0320000
        k(   59) = (  -0.3987411   0.2502909  -0.3916609), wk =   0.0320000
        k(   60) = (  -0.4022710   0.2502909  -0.7868794), wk =   0.0320000
        k(   61) = (  -0.4058009   0.2502909  -1.1820978), wk =   0.0320000
        k(   62) = (  -0.3916813   0.2502909   0.3987760), wk =   0.0320000
        k(   63) = (  -0.3952112   0.2502909   0.0035576), wk =   0.0320000

     Initial potential from superposition of free atoms

     starting charge      38.1877, renormalised to      40.0000
     Starting wfcs are   52 randomized atomic wfcs
     Checking if some PAW data can be deallocated...

     Self-consistent Calculation

[...]

     iteration #  5     ecut=    70.00 Ry     beta= 0.70
     Davidson diagonalization with overlap
     c_bands:  2 eigenvalues not converged
     ethr =  6.77E-07,  avg # of iterations =  2.5

[...]

     total energy              =    -234.80688746 Ry
     estimated scf accuracy    <          2.9E-10 Ry

     iteration # 11     ecut=    70.00 Ry     beta= 0.70
     Davidson diagonalization with overlap
     ethr =  7.29E-13,  avg # of iterations =  2.0

     End of self-consistent calculation

[...]

          k = 0.3952 0.2503-0.0036 ( 14350 PWs)   bands (ev):

[...]

          k =-0.3952 0.2503 0.0036 ( 14350 PWs)   bands (ev):

   -43.8726 -43.8723 -43.8707 -43.8704  -6.2896  -6.0626  -4.3448  -3.7646
    -2.5585  -2.5397  -2.3616  -2.3414  -1.2252  -0.8620  -0.7243  -0.4486
    -0.0973   0.1561   0.2549   0.3116   5.4586   5.6630   5.8356   5.8818

     the Fermi energy is     3.6186 ev

!    total energy              =    -234.80688746 Ry
     estimated scf accuracy    <          1.5E-11 Ry
     smearing contrib. (-TS)   =       0.00000000 Ry
     internal energy E=F+TS    =    -234.80688746 Ry

     The total energy is F=E-TS. E is the sum of the following terms:
     one-electron contribution =     -23.74597844 Ry
     hartree contribution      =      17.39139913 Ry
     xc contribution           =     -35.37701451 Ry
     ewald contribution        =     -54.34393669 Ry
     one-center paw contrib.   =    -138.73135695 Ry

     convergence has been achieved in  11 iterations

     Forces acting on atoms (cartesian axes, Ry/au):

     atom    1 type  1   force =     0.00000000   -0.00008712    0.00000000
     atom    2 type  1   force =     0.00000001    0.00008770   -0.00000001
     atom    3 type  1   force =    -0.00000001   -0.00008770    0.00000001
     atom    4 type  1   force =    -0.00000000    0.00008712   -0.00000000
     atom    5 type  2   force =     0.00000002    0.00007395    0.00000000
     atom    6 type  2   force =    -0.00000001   -0.00007421    0.00000003
     atom    7 type  2   force =     0.00000001    0.00007421   -0.00000003
     atom    8 type  2   force =    -0.00000002   -0.00007395   -0.00000000
     atom    9 type  3   force =    -0.00011151   -0.00007856    0.00002438
     atom   10 type  3   force =     0.00011163    0.00007855   -0.00002459
     atom   11 type  3   force =    -0.00011163    0.00007857    0.00002460
     atom   12 type  3   force =     0.00011151   -0.00007854   -0.00002438
     atom   13 type  3   force =    -0.00003963    0.00011871   -0.00006876
     atom   14 type  3   force =     0.00003969   -0.00011895    0.00006887
     atom   15 type  3   force =    -0.00003971   -0.00011895   -0.00006887
     atom   16 type  3   force =     0.00003965    0.00011872    0.00006878
     atom   17 type  3   force =    -0.00011163   -0.00007855    0.00002459
     atom   18 type  3   force =     0.00011151    0.00007856   -0.00002438
     atom   19 type  3   force =    -0.00011151    0.00007854    0.00002438
     atom   20 type  3   force =     0.00011163   -0.00007857   -0.00002460
     atom   21 type  3   force =    -0.00003969    0.00011895   -0.00006887
     atom   22 type  3   force =     0.00003963   -0.00011871    0.00006876
     atom   23 type  3   force =    -0.00003965   -0.00011872   -0.00006878
     atom   24 type  3   force =     0.00003971    0.00011895    0.00006887

     Total force =     0.000608     Total SCF correction =     0.000003

     Computing stress (Cartesian axis) and pressure

          total   stress  (Ry/bohr**3)                   (kbar)     P=       -0.14
  -0.00000088  -0.00000000  -0.00000115           -0.13       -0.00       -0.17
  -0.00000000   0.00000046  -0.00000000           -0.00        0.07       -0.00
  -0.00000115  -0.00000000  -0.00000249           -0.17       -0.00       -0.37

     Writing all to output data dir ./LiAlH4.save/

     General routines

     Parallel routines

   This run was terminated on:  22:43:17   6Dec2023

   JOB DONE.