     Program PWSCF v.7.1 starts on  8Dec2023 at 13:36:41

     Reading input from LiBH4_opt.in

     Current dimensions of program PWSCF are:
     Max number of different atomic species (ntypx) = 10
     Max number of k-points (npk) =  40000
     Max angular momentum in pseudopotentials (lmaxx) =  4

     IMPORTANT: XC functional enforced from input :
     Exchange-correlation= PBE
                           (   1   4   3   4   0   0   0)
     Any further DFT definition will be discarded
     Please, verify this is what you really want

     Message from routine setup:
     using ibrav=0 with symmetry is DISCOURAGED, use correct ibrav instead

     R & G space division:  proc/nbgrp/npool/nimage =      28
     Subspace diagonalization in iterative solution of the eigenvalue problem:
     a serial algorithm will be used

     Using Slab Decomposition

     bravais-lattice index     =            0
     lattice parameter (alat)  =       8.1587  a.u.
     unit-cell volume          =    1412.9038 (a.u.)^3
     number of atoms/cell      =           24
     number of atomic types    =            3
     number of electrons       =        40.00
     number of Kohn-Sham states=           24
     kinetic-energy cutoff     =     150.0000  Ry
     charge density cutoff     =     600.0000  Ry
     scf convergence threshold =      1.0E-08
     mixing beta               =       0.7000
     number of iterations used =            8  plain     mixing
     energy convergence thresh.=      1.0E-04
     force convergence thresh. =      1.0E-03
     press convergence thresh. =      5.0E-01
     Exchange-correlation= PBE
                           (   1   4   3   4   0   0   0)
     nstep                     =           50

     celldm(1)=   8.158741  celldm(2)=   0.000000  celldm(3)=   0.000000
     celldm(4)=   0.000000  celldm(5)=   0.000000  celldm(6)=   0.000000

     crystal axes: (cart. coord. in units of alat)
               a(1) = (   1.000000   0.000000   0.000000 )
               a(2) = (   0.000000   1.322774   0.000000 )
               a(3) = (   0.000000   0.000000   1.966788 )

     reciprocal axes: (cart. coord. in units 2 pi/alat)
               b(1) = (  1.000000  0.000000  0.000000 )
               b(2) = (  0.000000  0.755987  0.000000 )
               b(3) = (  0.000000  0.000000  0.508443 )

     PseudoPot. # 1 for B  read from file:
     /scratch/antwerpen/209/vsc20922/pseudos/b_pbe_v1.4.uspp.F.UPF
     MD5 check sum: cc6de2960df11db49a60e589f9ebb39b
     Pseudo is Ultrasoft + core correction, Zval =  3.0
     Generated by new atomic code, or converted to UPF format
     Using radial grid of  781 points,  4 beta functions with:
                l(1) =   0
                l(2) =   0
                l(3) =   1
                l(4) =   1
     Q(r) pseudized with  8 coefficients,  rinner =    1.100   1.100   1.100

     PseudoPot. # 2 for Li read from file:
     /scratch/antwerpen/209/vsc20922/pseudos/li_pbe_v1.4.uspp.F.UPF
     MD5 check sum: e912e257baa3777c20ea3d68f190483c
     Pseudo is Ultrasoft, Zval =  3.0
     Generated by new atomic code, or converted to UPF format
     Using radial grid of  751 points,  5 beta functions with:
                l(1) =   0
                l(2) =   0
                l(3) =   0
                l(4) =   1
                l(5) =   1
     Q(r) pseudized with 10 coefficients,  rinner =    1.150   1.150   1.150

     PseudoPot. # 3 for H  read from file:
     /scratch/antwerpen/209/vsc20922/pseudos/H.pbe-rrkjus_psl.1.0.0.UPF
     MD5 check sum: f52b6d4d1c606e5624b1dc7b2218f220
     Pseudo is Ultrasoft, Zval =  1.0
     Generated using "atomic" code by A. Dal Corso  v.5.1
     Using radial grid of  929 points,  2 beta functions with:
                l(1) =   0
                l(2) =   0
     Q(r) pseudized with 0 coefficients

     atomic species   valence    mass     pseudopotential
        B              3.00    10.81350     B ( 1.00)
        Li             3.00     6.96750     Li( 1.00)
        H              1.00     1.00750     H ( 1.00)

      8 Sym. Ops., with inversion, found ( 6 have fractional translation)

   Cartesian axes

     site n.     atom                  positions (alat units)
         1           B   tau(   1) = (   0.2500000   0.4596049   0.7140636  )
         2           B   tau(   2) = (   0.2500000   0.2017819   1.6974577  )
         3           B   tau(   3) = (   0.7500000   0.8631686   1.2527246  )
         4           B   tau(   4) = (   0.7500000   1.1209917   0.2693305  )
         5           Li  tau(   5) = (   0.7500000   1.2166070   1.6805722  )
         6           Li  tau(   6) = (   0.7500000   0.7675533   0.6971781  )
         7           Li  tau(   7) = (   0.2500000   0.1061665   0.2862160  )
         8           Li  tau(   8) = (   0.2500000   0.5552202   1.2696101  )
         9           H   tau(   9) = (   0.4792671   0.4213414   0.5532959  )
        10           H   tau(  10) = (   0.0207329   0.2400453   1.5366900  )
        11           H   tau(  11) = (   0.9792671   0.9014321   1.4134923  )
        12           H   tau(  12) = (   0.5207329   1.0827282   0.4300982  )
        13           H   tau(  13) = (   0.5207329   0.9014321   1.4134923  )
        14           H   tau(  14) = (   0.9792671   1.0827282   0.4300982  )
        15           H   tau(  15) = (   0.0207329   0.4213414   0.5532959  )
        16           H   tau(  16) = (   0.4792671   0.2400453   1.5366900  )
        17           H   tau(  17) = (   0.2500000   0.2694227   0.9219347  )
        18           H   tau(  18) = (   0.2500000   0.3919641   1.9053289  )
        19           H   tau(  19) = (   0.7500000   1.0533508   1.0448535  )
        20           H   tau(  20) = (   0.7500000   0.9308095   0.0614594  )
        21           H   tau(  21) = (   0.2500000   0.7255815   0.8103523  )
        22           H   tau(  22) = (   0.2500000   1.2585788   1.7937464  )
        23           H   tau(  23) = (   0.7500000   0.5971920   1.1564359  )
        24           H   tau(  24) = (   0.7500000   0.0641948   0.1730418  )

     number of k points=    64  Marzari-Vanderbilt smearing, width (Ry)=  0.0050
                       cart. coord. in units 2pi/alat
        k(    1) = (   0.0000000   0.0000000   0.0000000), wk =   0.0058309
        k(    2) = (   0.0000000   0.0000000   0.0726347), wk =   0.0116618
        k(    3) = (   0.0000000   0.0000000   0.1452695), wk =   0.0116618
        k(    4) = (   0.0000000   0.0000000   0.2179042), wk =   0.0116618
        k(    5) = (   0.0000000   0.1079982   0.0000000), wk =   0.0116618
        k(    6) = (   0.0000000   0.1079982   0.0726347), wk =   0.0233236
        k(    7) = (   0.0000000   0.1079982   0.1452695), wk =   0.0233236
        k(    8) = (   0.0000000   0.1079982   0.2179042), wk =   0.0233236
        k(    9) = (   0.0000000   0.2159964   0.0000000), wk =   0.0116618
        k(   10) = (   0.0000000   0.2159964   0.0726347), wk =   0.0233236
        k(   11) = (   0.0000000   0.2159964   0.1452695), wk =   0.0233236
        k(   12) = (   0.0000000   0.2159964   0.2179042), wk =   0.0233236
        k(   13) = (   0.0000000   0.3239946   0.0000000), wk =   0.0116618
        k(   14) = (   0.0000000   0.3239946   0.0726347), wk =   0.0233236
        k(   15) = (   0.0000000   0.3239946   0.1452695), wk =   0.0233236
        k(   16) = (   0.0000000   0.3239946   0.2179042), wk =   0.0233236
        k(   17) = (   0.1428571   0.0000000   0.0000000), wk =   0.0116618
        k(   18) = (   0.1428571   0.0000000   0.0726347), wk =   0.0233236
        k(   19) = (   0.1428571   0.0000000   0.1452695), wk =   0.0233236
        k(   20) = (   0.1428571   0.0000000   0.2179042), wk =   0.0233236
        k(   21) = (   0.1428571   0.1079982   0.0000000), wk =   0.0233236
        k(   22) = (   0.1428571   0.1079982   0.0726347), wk =   0.0466472
        k(   23) = (   0.1428571   0.1079982   0.1452695), wk =   0.0466472
        k(   24) = (   0.1428571   0.1079982   0.2179042), wk =   0.0466472
        k(   25) = (   0.1428571   0.2159964   0.0000000), wk =   0.0233236
        k(   26) = (   0.1428571   0.2159964   0.0726347), wk =   0.0466472
        k(   27) = (   0.1428571   0.2159964   0.1452695), wk =   0.0466472
        k(   28) = (   0.1428571   0.2159964   0.2179042), wk =   0.0466472
        k(   29) = (   0.1428571   0.3239946   0.0000000), wk =   0.0233236
        k(   30) = (   0.1428571   0.3239946   0.0726347), wk =   0.0466472
        k(   31) = (   0.1428571   0.3239946   0.1452695), wk =   0.0466472
        k(   32) = (   0.1428571   0.3239946   0.2179042), wk =   0.0466472
        k(   33) = (   0.2857143   0.0000000   0.0000000), wk =   0.0116618
        k(   34) = (   0.2857143   0.0000000   0.0726347), wk =   0.0233236
        k(   35) = (   0.2857143   0.0000000   0.1452695), wk =   0.0233236
        k(   36) = (   0.2857143   0.0000000   0.2179042), wk =   0.0233236
        k(   37) = (   0.2857143   0.1079982   0.0000000), wk =   0.0233236
        k(   38) = (   0.2857143   0.1079982   0.0726347), wk =   0.0466472
        k(   39) = (   0.2857143   0.1079982   0.1452695), wk =   0.0466472
        k(   40) = (   0.2857143   0.1079982   0.2179042), wk =   0.0466472
        k(   41) = (   0.2857143   0.2159964   0.0000000), wk =   0.0233236
        k(   42) = (   0.2857143   0.2159964   0.0726347), wk =   0.0466472
        k(   43) = (   0.2857143   0.2159964   0.1452695), wk =   0.0466472
        k(   44) = (   0.2857143   0.2159964   0.2179042), wk =   0.0466472
        k(   45) = (   0.2857143   0.3239946   0.0000000), wk =   0.0233236
        k(   46) = (   0.2857143   0.3239946   0.0726347), wk =   0.0466472
        k(   47) = (   0.2857143   0.3239946   0.1452695), wk =   0.0466472
        k(   48) = (   0.2857143   0.3239946   0.2179042), wk =   0.0466472
        k(   49) = (   0.4285714   0.0000000   0.0000000), wk =   0.0116618
        k(   50) = (   0.4285714   0.0000000   0.0726347), wk =   0.0233236
        k(   51) = (   0.4285714   0.0000000   0.1452695), wk =   0.0233236
        k(   52) = (   0.4285714   0.0000000   0.2179042), wk =   0.0233236
        k(   53) = (   0.4285714   0.1079982   0.0000000), wk =   0.0233236
        k(   54) = (   0.4285714   0.1079982   0.0726347), wk =   0.0466472
        k(   55) = (   0.4285714   0.1079982   0.1452695), wk =   0.0466472
        k(   56) = (   0.4285714   0.1079982   0.2179042), wk =   0.0466472
        k(   57) = (   0.4285714   0.2159964   0.0000000), wk =   0.0233236
        k(   58) = (   0.4285714   0.2159964   0.0726347), wk =   0.0466472
        k(   59) = (   0.4285714   0.2159964   0.1452695), wk =   0.0466472
        k(   60) = (   0.4285714   0.2159964   0.2179042), wk =   0.0466472
        k(   61) = (   0.4285714   0.3239946   0.0000000), wk =   0.0233236
        k(   62) = (   0.4285714   0.3239946   0.0726347), wk =   0.0466472
        k(   63) = (   0.4285714   0.3239946   0.1452695), wk =   0.0466472
        k(   64) = (   0.4285714   0.3239946   0.2179042), wk =   0.0466472

     Initial potential from superposition of free atoms

     starting charge      38.1958, renormalised to      40.0000
[...]

     End of BFGS Geometry Optimization

     Final enthalpy           =    -102.7273933243 Ry

     File ./LiBH4.bfgs deleted, as requested
Begin final coordinates
     new unit-cell volume =   1458.31305 a.u.^3 (   216.09970 Ang^3 )
     density =      0.67039 g/cm^3

CELL_PARAMETERS (alat=  8.15874136)
   1.012447662   0.000000000   0.000000000
   0.000000000   1.338100003   0.000000000
   0.000000000   0.000000000   1.982075123

ATOMIC_POSITIONS (crystal)
B             0.2500000000        0.3475916314        0.3631969646
B             0.2500000000        0.1524083686        0.8631969646
B             0.7500000000        0.6524083686        0.6368030354
B             0.7500000000        0.8475916314        0.1368030354
Li            0.7500000000        0.9191817448        0.8560277547
Li            0.7500000000        0.5808182552        0.3560277547
Li            0.2500000000        0.0808182552        0.1439722453
Li            0.2500000000        0.4191817448        0.6439722453
H             0.4780095145        0.3184383472        0.2820091264
H             0.0219904855        0.1815616528        0.7820091264
H             0.9780095145        0.6815616528        0.7179908736
H             0.5219904855        0.8184383472        0.2179908736
H             0.5219904855        0.6815616528        0.7179908736
H             0.9780095145        0.8184383472        0.2179908736
H             0.0219904855        0.3184383472        0.2820091264
H             0.4780095145        0.1815616528        0.7820091264
H             0.2500000000        0.2044284373        0.4682713094
H             0.2500000000        0.2955715627        0.9682713094
H             0.7500000000        0.7955715627        0.5317286906
H             0.7500000000        0.7044284373        0.0317286906
H             0.2500000000        0.5475410391        0.4116691824
H             0.2500000000        0.9524589609        0.9116691824
H             0.7500000000        0.4524589609        0.5883308176
H             0.7500000000        0.0475410391        0.0883308176
End final coordinates

     Writing config-only to output data dir ./LiBH4.save/

     Final scf calculation at the relaxed structure.
     The G-vectors are recalculated for the final unit cell
     Results may differ from those at the preceding step.

     Using Slab Decomposition

     bravais-lattice index     =            0
     lattice parameter (alat)  =       8.1587  a.u.
     unit-cell volume          =    1458.3131 (a.u.)^3
     number of atoms/cell      =           24
     number of atomic types    =            3
     number of electrons       =        40.00
     number of Kohn-Sham states=           24
     kinetic-energy cutoff     =     150.0000  Ry
     charge density cutoff     =     600.0000  Ry
     scf convergence threshold =      1.0E-10
     mixing beta               =       0.7000
     number of iterations used =            8  plain     mixing
     press convergence thresh. =      5.0E-01
     Exchange-correlation= PBE
                           (   1   4   3   4   0   0   0)

     celldm(1)=   8.158741  celldm(2)=   0.000000  celldm(3)=   0.000000
     celldm(4)=   0.000000  celldm(5)=   0.000000  celldm(6)=   0.000000

     crystal axes: (cart. coord. in units of alat)
               a(1) = (   1.012448   0.000000   0.000000 )
               a(2) = (   0.000000   1.338100   0.000000 )
               a(3) = (   0.000000   0.000000   1.982075 )

     reciprocal axes: (cart. coord. in units 2 pi/alat)
               b(1) = (  0.987705  0.000000  0.000000 )
               b(2) = (  0.000000  0.747328  0.000000 )
               b(3) = (  0.000000  0.000000  0.504522 )

     PseudoPot. # 1 for B  read from file:
     /scratch/antwerpen/209/vsc20922/pseudos/b_pbe_v1.4.uspp.F.UPF
     MD5 check sum: cc6de2960df11db49a60e589f9ebb39b
     Pseudo is Ultrasoft + core correction, Zval =  3.0
     Generated by new atomic code, or converted to UPF format
     Using radial grid of  781 points,  4 beta functions with:
                l(1) =   0
                l(2) =   0
                l(3) =   1
                l(4) =   1
     Q(r) pseudized with  8 coefficients,  rinner =    1.100   1.100   1.100

     PseudoPot. # 2 for Li read from file:
     /scratch/antwerpen/209/vsc20922/pseudos/li_pbe_v1.4.uspp.F.UPF
     MD5 check sum: e912e257baa3777c20ea3d68f190483c
     Pseudo is Ultrasoft, Zval =  3.0
     Generated by new atomic code, or converted to UPF format
     Using radial grid of  751 points,  5 beta functions with:
                l(1) =   0
                l(2) =   0
                l(3) =   0
                l(4) =   1
                l(5) =   1
     Q(r) pseudized with 10 coefficients,  rinner =    1.150   1.150   1.150

     PseudoPot. # 3 for H  read from file:
     /scratch/antwerpen/209/vsc20922/pseudos/H.pbe-rrkjus_psl.1.0.0.UPF
     MD5 check sum: f52b6d4d1c606e5624b1dc7b2218f220
     Pseudo is Ultrasoft, Zval =  1.0
     Generated using "atomic" code by A. Dal Corso  v.5.1
     Using radial grid of  929 points,  2 beta functions with:
                l(1) =   0
                l(2) =   0
     Q(r) pseudized with 0 coefficients

     atomic species   valence    mass     pseudopotential
        B              3.00    10.81350     B ( 1.00)
        Li             3.00     6.96750     Li( 1.00)
        H              1.00     1.00750     H ( 1.00)

      8 Sym. Ops., with inversion, found ( 6 have fractional translation)

   Cartesian axes

     site n.     atom                  positions (alat units)
         1           B   tau(   1) = (   0.2531119   0.4651124   0.7198837  )
         2           B   tau(   2) = (   0.2531119   0.2039376   1.7109212  )
         3           B   tau(   3) = (   0.7593357   0.8729876   1.2621915  )
         4           B   tau(   4) = (   0.7593357   1.1341624   0.2711539  )
         5           Li  tau(   5) = (   0.7593357   1.2299571   1.6967113  )
         6           Li  tau(   6) = (   0.7593357   0.7771929   0.7056738  )
         7           Li  tau(   7) = (   0.2531119   0.1081429   0.2853638  )
         8           Li  tau(   8) = (   0.2531119   0.5609071   1.2764014  )
         9           H   tau(   9) = (   0.4839596   0.4261024   0.5589633  )
        10           H   tau(  10) = (   0.0222642   0.2429476   1.5500008  )
        11           H   tau(  11) = (   0.9901834   0.9119976   1.4231118  )
        12           H   tau(  12) = (   0.5284880   1.0951524   0.4320743  )
        13           H   tau(  13) = (   0.5284880   0.9119976   1.4231118  )
        14           H   tau(  14) = (   0.9901834   1.0951524   0.4320743  )
        15           H   tau(  15) = (   0.0222642   0.4261024   0.5589633  )
        16           H   tau(  16) = (   0.4839596   0.2429476   1.5500008  )
        17           H   tau(  17) = (   0.2531119   0.2735457   0.9281489  )
        18           H   tau(  18) = (   0.2531119   0.3955043   1.9191865  )
        19           H   tau(  19) = (   0.7593357   1.0645543   1.0539262  )
        20           H   tau(  20) = (   0.7593357   0.9425957   0.0628886  )
        21           H   tau(  21) = (   0.2531119   0.7326647   0.8159592  )
        22           H   tau(  22) = (   0.2531119   1.2744853   1.8069968  )
        23           H   tau(  23) = (   0.7593357   0.6054353   1.1661159  )
        24           H   tau(  24) = (   0.7593357   0.0636147   0.1750783  )

     number of k points=    64  Marzari-Vanderbilt smearing, width (Ry)=  0.0050
                       cart. coord. in units 2pi/alat
        k(    1) = (   0.0000000   0.0000000   0.0000000), wk =   0.0058309
        k(    2) = (   0.0000000   0.0000000   0.0720745), wk =   0.0116618
        k(    3) = (   0.0000000   0.0000000   0.1441491), wk =   0.0116618
        k(    4) = (   0.0000000   0.0000000   0.2162236), wk =   0.0116618
        k(    5) = (   0.0000000   0.1067612   0.0000000), wk =   0.0116618
        k(    6) = (   0.0000000   0.1067612   0.0720745), wk =   0.0233236
        k(    7) = (   0.0000000   0.1067612   0.1441491), wk =   0.0233236
        k(    8) = (   0.0000000   0.1067612   0.2162236), wk =   0.0233236
        k(    9) = (   0.0000000   0.2135224   0.0000000), wk =   0.0116618
        k(   10) = (   0.0000000   0.2135224   0.0720745), wk =   0.0233236
        k(   11) = (   0.0000000   0.2135224   0.1441491), wk =   0.0233236
        k(   12) = (   0.0000000   0.2135224   0.2162236), wk =   0.0233236
        k(   13) = (   0.0000000   0.3202836   0.0000000), wk =   0.0116618
        k(   14) = (   0.0000000   0.3202836   0.0720745), wk =   0.0233236
        k(   15) = (   0.0000000   0.3202836   0.1441491), wk =   0.0233236
        k(   16) = (   0.0000000   0.3202836   0.2162236), wk =   0.0233236
        k(   17) = (   0.1411008   0.0000000   0.0000000), wk =   0.0116618
        k(   18) = (   0.1411008   0.0000000   0.0720745), wk =   0.0233236
        k(   19) = (   0.1411008   0.0000000   0.1441491), wk =   0.0233236
        k(   20) = (   0.1411008   0.0000000   0.2162236), wk =   0.0233236
        k(   21) = (   0.1411008   0.1067612   0.0000000), wk =   0.0233236
        k(   22) = (   0.1411008   0.1067612   0.0720745), wk =   0.0466472
        k(   23) = (   0.1411008   0.1067612   0.1441491), wk =   0.0466472
        k(   24) = (   0.1411008   0.1067612   0.2162236), wk =   0.0466472
        k(   25) = (   0.1411008   0.2135224   0.0000000), wk =   0.0233236
        k(   26) = (   0.1411008   0.2135224   0.0720745), wk =   0.0466472
        k(   27) = (   0.1411008   0.2135224   0.1441491), wk =   0.0466472
        k(   28) = (   0.1411008   0.2135224   0.2162236), wk =   0.0466472
        k(   29) = (   0.1411008   0.3202836   0.0000000), wk =   0.0233236
        k(   30) = (   0.1411008   0.3202836   0.0720745), wk =   0.0466472
        k(   31) = (   0.1411008   0.3202836   0.1441491), wk =   0.0466472
        k(   32) = (   0.1411008   0.3202836   0.2162236), wk =   0.0466472
        k(   33) = (   0.2822015   0.0000000   0.0000000), wk =   0.0116618
        k(   34) = (   0.2822015   0.0000000   0.0720745), wk =   0.0233236
        k(   35) = (   0.2822015   0.0000000   0.1441491), wk =   0.0233236
        k(   36) = (   0.2822015   0.0000000   0.2162236), wk =   0.0233236
        k(   37) = (   0.2822015   0.1067612   0.0000000), wk =   0.0233236
        k(   38) = (   0.2822015   0.1067612   0.0720745), wk =   0.0466472
        k(   39) = (   0.2822015   0.1067612   0.1441491), wk =   0.0466472
        k(   40) = (   0.2822015   0.1067612   0.2162236), wk =   0.0466472
        k(   41) = (   0.2822015   0.2135224   0.0000000), wk =   0.0233236
        k(   42) = (   0.2822015   0.2135224   0.0720745), wk =   0.0466472
        k(   43) = (   0.2822015   0.2135224   0.1441491), wk =   0.0466472
        k(   44) = (   0.2822015   0.2135224   0.2162236), wk =   0.0466472
        k(   45) = (   0.2822015   0.3202836   0.0000000), wk =   0.0233236
        k(   46) = (   0.2822015   0.3202836   0.0720745), wk =   0.0466472
        k(   47) = (   0.2822015   0.3202836   0.1441491), wk =   0.0466472
        k(   48) = (   0.2822015   0.3202836   0.2162236), wk =   0.0466472
        k(   49) = (   0.4233023   0.0000000   0.0000000), wk =   0.0116618
        k(   50) = (   0.4233023   0.0000000   0.0720745), wk =   0.0233236
        k(   51) = (   0.4233023   0.0000000   0.1441491), wk =   0.0233236
        k(   52) = (   0.4233023   0.0000000   0.2162236), wk =   0.0233236
        k(   53) = (   0.4233023   0.1067612   0.0000000), wk =   0.0233236
        k(   54) = (   0.4233023   0.1067612   0.0720745), wk =   0.0466472
        k(   55) = (   0.4233023   0.1067612   0.1441491), wk =   0.0466472
        k(   56) = (   0.4233023   0.1067612   0.2162236), wk =   0.0466472
        k(   57) = (   0.4233023   0.2135224   0.0000000), wk =   0.0233236
        k(   58) = (   0.4233023   0.2135224   0.0720745), wk =   0.0466472
        k(   59) = (   0.4233023   0.2135224   0.1441491), wk =   0.0466472
        k(   60) = (   0.4233023   0.2135224   0.2162236), wk =   0.0466472
        k(   61) = (   0.4233023   0.3202836   0.0000000), wk =   0.0233236
        k(   62) = (   0.4233023   0.3202836   0.0720745), wk =   0.0466472
        k(   63) = (   0.4233023   0.3202836   0.1441491), wk =   0.0466472
        k(   64) = (   0.4233023   0.3202836   0.2162236), wk =   0.0466472

     Initial potential from superposition of free atoms

     starting charge      38.1958, renormalised to      40.0000
     Starting wfcs are   52 randomized atomic wfcs

     Self-consistent Calculation

[...]

     iteration #  6     ecut=   150.00 Ry     beta= 0.70
     Davidson diagonalization with overlap
     c_bands:  1 eigenvalues not converged
     c_bands:  1 eigenvalues not converged
     c_bands:  1 eigenvalues not converged
     c_bands:  1 eigenvalues not converged
     c_bands:  1 eigenvalues not converged
     c_bands:  1 eigenvalues not converged
     c_bands:  1 eigenvalues not converged
     ethr =  2.30E-07,  avg # of iterations = 11.4

[...]

     total energy              =    -102.72739857 Ry
     estimated scf accuracy    <          5.2E-10 Ry

     iteration # 14     ecut=   150.00 Ry     beta= 0.70
     Davidson diagonalization with overlap
     ethr =  1.30E-12,  avg # of iterations =  2.1

     End of self-consistent calculation

[...]

          k = 0.4233 0.3203 0.2162 ( 45237 PWs)   bands (ev):

   -45.8299 -45.8299 -45.8295 -45.8295  -8.8415  -8.8220  -8.6672  -8.6597
    -4.9726  -4.9418  -4.7662  -4.7428  -3.9122  -3.8350  -3.5970  -3.5271
    -3.4342  -3.3812  -3.2968  -3.2315   5.0973   5.1209   5.3062   5.3912

     the Fermi energy is    -0.3589 ev

!    total energy              =    -102.72739857 Ry
     estimated scf accuracy    <          1.6E-11 Ry
     smearing contrib. (-TS)   =       0.00000000 Ry
     internal energy E=F+TS    =    -102.72739857 Ry

     The total energy is F=E-TS. E is the sum of the following terms:
     one-electron contribution =     -58.15638110 Ry
     hartree contribution      =      31.65984348 Ry
     xc contribution           =     -37.13114920 Ry
     ewald contribution        =     -39.09971175 Ry

     convergence has been achieved in  14 iterations

     Forces acting on atoms (cartesian axes, Ry/au):

     atom    1 type  1   force =     0.00000000   -0.00012339   -0.00002349
     atom    2 type  1   force =     0.00000000    0.00012339   -0.00002349
     atom    3 type  1   force =    -0.00000000    0.00012339    0.00002349
     atom    4 type  1   force =    -0.00000000   -0.00012339    0.00002349
     atom    5 type  2   force =     0.00000000   -0.00011416    0.00021467
     atom    6 type  2   force =     0.00000000    0.00011416    0.00021467
     atom    7 type  2   force =     0.00000000    0.00011416   -0.00021467
     atom    8 type  2   force =     0.00000000   -0.00011416   -0.00021467
     atom    9 type  3   force =    -0.00011265    0.00013804   -0.00006640
     atom   10 type  3   force =     0.00011265   -0.00013804   -0.00006640
     atom   11 type  3   force =    -0.00011265   -0.00013804    0.00006640
     atom   12 type  3   force =     0.00011265    0.00013804    0.00006640
     atom   13 type  3   force =     0.00011265   -0.00013804    0.00006640
     atom   14 type  3   force =    -0.00011265    0.00013804    0.00006640
     atom   15 type  3   force =     0.00011265    0.00013804   -0.00006640
     atom   16 type  3   force =    -0.00011265   -0.00013804   -0.00006640
     atom   17 type  3   force =     0.00000000    0.00058548    0.00042703
     atom   18 type  3   force =     0.00000000   -0.00058548    0.00042703
     atom   19 type  3   force =     0.00000000   -0.00058548   -0.00042703
     atom   20 type  3   force =     0.00000000    0.00058548   -0.00042703
     atom   21 type  3   force =     0.00000000   -0.00030656    0.00012137
     atom   22 type  3   force =     0.00000000    0.00030656    0.00012137
     atom   23 type  3   force =    -0.00000000    0.00030656   -0.00012137
     atom   24 type  3   force =     0.00000000   -0.00030656   -0.00012137

     Total force =     0.001768     Total SCF correction =     0.000002

     Computing stress (Cartesian axis) and pressure

          total   stress  (Ry/bohr**3)                   (kbar)     P=       -0.26
  -0.00000333   0.00000000   0.00000000           -0.49        0.00        0.00
   0.00000000  -0.00000275   0.00000000            0.00       -0.40        0.00
   0.00000000   0.00000000   0.00000084            0.00        0.00        0.12

     Writing all to output data dir ./LiBH4.save/

     General routines

     Parallel routines

   This run was terminated on:  13:52:19   8Dec2023

   JOB DONE.