     Program PWSCF v.7.1 starts on  3Dec2023 at 15:36:44

     Reading input from Na3AlH6_opt.in

     Current dimensions of program PWSCF are:
     Max number of different atomic species (ntypx) = 10
     Max number of k-points (npk) =  40000
     Max angular momentum in pseudopotentials (lmaxx) =  4
     file Al.pbe-n-kjpaw_psl.1.0.0.UPF: wavefunction(s)  3S 3P renormalized

     IMPORTANT: XC functional enforced from input :
     Exchange-correlation= PBE
                           (   1   4   3   4   0   0   0)
     Any further DFT definition will be discarded
     Please, verify this is what you really want

     Message from routine setup:
     using ibrav=0 with symmetry is DISCOURAGED, use correct ibrav instead

     R & G space division:  proc/nbgrp/npool/nimage =      28
     Subspace diagonalization in iterative solution of the eigenvalue problem:
     a serial algorithm will be used

     Using Slab Decomposition

     bravais-lattice index     =            0
     lattice parameter (alat)  =      10.0031  a.u.
     unit-cell volume          =    1494.3871 (a.u.)^3
     number of atoms/cell      =           20
     number of atomic types    =            3
     number of electrons       =        72.00
     number of Kohn-Sham states=           43
     kinetic-energy cutoff     =      70.0000  Ry
     charge density cutoff     =     280.0000  Ry
     scf convergence threshold =      1.0E-08
     mixing beta               =       0.7000
     number of iterations used =            8  plain     mixing
     energy convergence thresh.=      1.0E-04
     force convergence thresh. =      1.0E-03
     press convergence thresh. =      5.0E-01
     Exchange-correlation= PBE
                           (   1   4   3   4   0   0   0)
     nstep                     =           50

     celldm(1)=  10.003076  celldm(2)=   0.000000  celldm(3)=   0.000000
     celldm(4)=   0.000000  celldm(5)=   0.000000  celldm(6)=   0.000000

     crystal axes: (cart. coord. in units of alat)
               a(1) = (   1.000000   0.000000   0.000000 )
               a(2) = (   0.000000   1.037180   0.000000 )
               a(3) = (  -0.999562   0.000000   1.439488 )

     reciprocal axes: (cart. coord. in units 2 pi/alat)
               b(1) = (  1.000000  0.000000  0.694387 )
               b(2) = (  0.000000  0.964153  0.000000 )
               b(3) = (  0.000000  0.000000  0.694691 )

     PseudoPot. # 1 for H  read from file:
     /scratch/antwerpen/209/vsc20922/pseudos/H.pbe-rrkjus_psl.1.0.0.UPF
     MD5 check sum: f52b6d4d1c606e5624b1dc7b2218f220
     Pseudo is Ultrasoft, Zval =  1.0
     Generated using "atomic" code by A. Dal Corso  v.5.1
     Using radial grid of  929 points,  2 beta functions with:
                l(1) =   0
                l(2) =   0
     Q(r) pseudized with 0 coefficients

     PseudoPot. # 2 for Al read from file:
     /scratch/antwerpen/209/vsc20922/pseudos/Al.pbe-n-kjpaw_psl.1.0.0.UPF
     MD5 check sum: cfc449ca30b5f3223ec38ddd88ac046d
     Pseudo is Projector augmented-wave + core cor, Zval =  3.0
     Generated using "atomic" code by A. Dal Corso  v.5.1
     Shape of augmentation charge: PSQ
     Using radial grid of 1135 points,  6 beta functions with:
                l(1) =   0
                l(2) =   0
                l(3) =   1
                l(4) =   1
                l(5) =   2
                l(6) =   2
     Q(r) pseudized with 0 coefficients

     PseudoPot. # 3 for Na read from file:
     /scratch/antwerpen/209/vsc20922/pseudos/na_pbe_v1.5.uspp.F.UPF
     MD5 check sum: 44600605ef58000f06b90626533354dc
     Pseudo is Ultrasoft, Zval =  9.0
     Generated by new atomic code, or converted to UPF format
     Using radial grid of  819 points,  5 beta functions with:
                l(1) =   0
                l(2) =   0
                l(3) =   1
                l(4) =   1
                l(5) =   2
     Q(r) pseudized with  8 coefficients,  rinner =    1.250   1.250   1.250
                                                       1.250   1.250

     atomic species   valence    mass     pseudopotential
        H              1.00     1.00750     H ( 1.00)
        Al             3.00    26.98100     Al( 1.00)
        Na             9.00    22.98900     Na( 1.00)

      4 Sym. Ops., with inversion, found ( 2 have fractional translation)

   Cartesian axes

     site n.     atom                  positions (alat units)
         1           Al  tau(   1) = (  -0.4997812   0.5185901   0.7197441  )
         2           Al  tau(   2) = (   0.0000000   0.0000000   0.0000000  )
         3           Na  tau(   3) = (   0.5000000   0.5185901   0.0000000  )
         4           Na  tau(   4) = (   0.0002188   0.0000000   0.7197441  )
         5           Na  tau(   5) = (   0.0114940   0.4695553   1.0745406  )
         6           Na  tau(   6) = (  -0.5108375   0.9881455   1.0846919  )
         7           Na  tau(   7) = (  -0.0110564   0.5676249   0.3649477  )
         8           Na  tau(   8) = (   0.5112752   0.0490348   0.3547964  )
         9           H   tau(   9) = (   0.8387304   0.2771733   0.0906651  )
        10           H   tau(  10) = (  -0.3385116   0.7957635   0.6290790  )
        11           H   tau(  11) = (  -0.8382928   0.7600069   1.3488231  )
        12           H   tau(  12) = (   0.3389492   0.2414168   0.8104093  )
        13           H   tau(  13) = (  -0.2278400   0.3425602   0.6572049  )
        14           H   tau(  14) = (   0.7280588   0.8611504   0.0625392  )
        15           H   tau(  15) = (   0.2282776   0.6946200   0.7822834  )
        16           H   tau(  16) = (  -0.7276212   0.1760299   1.3769491  )
        17           H   tau(  17) = (   0.4006149   0.4691118   0.4077466  )
        18           H   tau(  18) = (   0.0996039   0.9877019   0.3119975  )
        19           H   tau(  19) = (  -0.4001772   0.5680685   1.0317417  )
        20           H   tau(  20) = (  -0.0991663   0.0494784   1.1274908  )

     number of k points=   100  Marzari-Vanderbilt smearing, width (Ry)=  0.0050

     Number of k-points >= 100: set verbosity='high' to print them.

     Initial potential from superposition of free atoms

     starting charge      71.9576, renormalised to      72.0000
     Starting wfcs are   50 randomized atomic wfcs
     Checking if some PAW data can be deallocated...

     Self-consistent Calculation

     iteration #  1     ecut=    70.00 Ry     beta= 0.70
     Davidson diagonalization with overlap
     ethr =  1.00E-02,  avg # of iterations =  5.8

     total energy              =    -665.23162087 Ry
     estimated scf accuracy    <       0.94172144 Ry

[...]

     iteration #  3     ecut=    70.00 Ry     beta= 0.70
     Davidson diagonalization with overlap
     c_bands:  1 eigenvalues not converged
     ethr =  2.97E-05,  avg # of iterations =  9.6

[...]

     End of self-consistent calculation

     Number of k-points >= 100: set verbosity='high' to print the bands.

     the Fermi energy is     3.5713 ev

!    total energy              =    -665.33705855 Ry
     estimated scf accuracy    <          3.2E-09 Ry
     smearing contrib. (-TS)   =       0.00000000 Ry
     internal energy E=F+TS    =    -665.33705855 Ry

     The total energy is F=E-TS. E is the sum of the following terms:
     one-electron contribution =    -481.97973958 Ry
     hartree contribution      =     254.78235732 Ry
     xc contribution           =    -100.22952871 Ry
     ewald contribution        =    -268.57362671 Ry
     one-center paw contrib.   =     -69.33652087 Ry

     convergence has been achieved in   9 iterations

     Forces acting on atoms (cartesian axes, Ry/au):

     atom    1 type  2   force =     0.00000000    0.00000000    0.00000000
     atom    2 type  2   force =     0.00000000    0.00000000    0.00000000
     atom    3 type  3   force =     0.00000000    0.00000000    0.00000000
     atom    4 type  3   force =    -0.00000000    0.00000000   -0.00000000
     atom    5 type  3   force =    -0.00045324    0.00044599    0.00032770
     atom    6 type  3   force =     0.00045324    0.00044599   -0.00032770
     atom    7 type  3   force =     0.00045324   -0.00044599   -0.00032770
     atom    8 type  3   force =    -0.00045324   -0.00044599    0.00032770
     atom    9 type  1   force =    -0.00090282    0.00190168    0.00069050
     atom   10 type  1   force =     0.00090282    0.00190168   -0.00069050
     atom   11 type  1   force =     0.00090282   -0.00190168   -0.00069050
     atom   12 type  1   force =    -0.00090282   -0.00190168    0.00069050
     atom   13 type  1   force =     0.00194621   -0.00124958   -0.00039838
     atom   14 type  1   force =    -0.00194621   -0.00124958    0.00039838
     atom   15 type  1   force =    -0.00194621    0.00124958    0.00039838
     atom   16 type  1   force =     0.00194621    0.00124958   -0.00039838
     atom   17 type  1   force =    -0.00088551   -0.00008216   -0.00228239
     atom   18 type  1   force =     0.00088551   -0.00008216    0.00228239
     atom   19 type  1   force =     0.00088551    0.00008216    0.00228239
     atom   20 type  1   force =    -0.00088551    0.00008216   -0.00228239

     Total force =     0.008229     Total SCF correction =     0.000022

     Computing stress (Cartesian axis) and pressure

          total   stress  (Ry/bohr**3)                   (kbar)     P=       14.92
   0.00010132   0.00000000   0.00000020           14.90        0.00        0.03
   0.00000000   0.00010040   0.00000000            0.00       14.77        0.00
   0.00000020   0.00000000   0.00010255            0.03        0.00       15.09

     BFGS Geometry Optimization
     Energy error            =      0.0E+00 Ry
     Gradient error          =      2.3E-03 Ry/Bohr
     Cell gradient error     =      1.5E+01 kbar

     number of scf cycles    =   1
     number of bfgs steps    =   0

     enthalpy           new  =    -665.3370585516 Ry

     new trust radius        =       0.0198216093 bohr
     new conv_thr            =       0.0000000100 Ry

     new unit-cell volume =   1505.78326 a.u.^3 (   223.13406 Ang^3 )
     density =      1.51804 g/cm^3

CELL_PARAMETERS (alat= 10.00307627)
   1.002533026   0.000000000   0.000004887
   0.000000000   1.039783452   0.000000000
  -1.002087254   0.000000000   1.443173892

ATOMIC_POSITIONS (crystal)
Al           -0.0000000000        0.5000000000        0.5000000000
Al            0.0000000000        0.0000000000        0.0000000000
Na            0.5000000000        0.5000000000       -0.0000000000
Na            0.5000000000        0.0000000000        0.5000000000
Na            0.7576187374        0.4527659675        0.7464967478
Na            0.2423812626        0.9527659675        0.7535032522
Na            0.2423812626        0.5472340325        0.2535032522
Na            0.7576187374        0.0472340325        0.2464967478
H             0.9016448378        0.2674206843        0.0630322435
H             0.0983551622        0.7674206843        0.4369677565
H             0.0983551622        0.7325793157        0.9369677565
H             0.9016448378        0.2325793157        0.5630322435
[...]
     Gradient error          =      1.1E-03 Ry/Bohr
     Cell gradient error     =      1.2E+01 kbar

[...]

     enthalpy           old  =    -665.3370585516 Ry
     enthalpy           new  =    -665.3381272297 Ry

     CASE: enthalpy          _new < enthalpy          _old

[...]

     Threshold (ethr) on eigenvalues was too large:
     Diagonalizing with lowered threshold

     Davidson diagonalization with overlap
     ethr =  7.01E-08,  avg # of iterations =  2.0

[...]

     number of scf cycles    =   8
     number of bfgs steps    =   7

     enthalpy           old  =    -665.3398998604 Ry
     enthalpy           new  =    -665.3399284053 Ry

     CASE: enthalpy          _new < enthalpy          _old

     new trust radius        =       0.0021009280 bohr
     new conv_thr            =            1.0E-10 Ry

     new unit-cell volume =   1556.20638 a.u.^3 (   230.60599 Ang^3 )
     density =      1.46885 g/cm^3

[...]

ATOMIC_POSITIONS (crystal)
Al           -0.0000000000        0.5000000000        0.5000000000
Al           -0.0000000000        0.0000000000       -0.0000000000
Na            0.5000000000        0.5000000000        0.0000000000
Na            0.5000000000       -0.0000000000        0.5000000000
Na            0.7571379361        0.4532964183        0.7466124675
Na            0.2428620639        0.9532964183        0.7533875325
Na            0.2428620639        0.5467035817        0.2533875325
Na            0.7571379361        0.0467035817        0.2466124675
H             0.9024845177        0.2664212130        0.0629802908
H             0.0975154823        0.7664212130        0.4370197092
H             0.0975154823        0.7335787870        0.9370197092
H             0.9024845177        0.2335787870        0.5629802908
H             0.2275870030        0.3310851877        0.4566137388
H             0.7724129970        0.8310851877        0.0433862612
H             0.7724129970        0.6689148123        0.5433862612
H             0.2275870030        0.1689148123        0.9566137388
H             0.6845621549        0.4525392294        0.2840398407
H             0.3154378451        0.9525392294        0.2159601593
H             0.3154378451        0.5474607706        0.7159601593
H             0.6845621549        0.0474607706        0.7840398407

     Writing config-only to output data dir ./Na3AlH6.save/
     NEW-OLD atomic charge density approx. for the potential
     extrapolated charge   71.95308, renormalised to   72.00000

[...]

     Energy error            =      3.3E-06 Ry
     Gradient error          =      2.5E-04 Ry/Bohr
     Cell gradient error     =      3.1E-01 kbar

     bfgs converged in   9 scf cycles and   8 bfgs steps
     (criteria: energy <  1.0E-04 Ry, force <  1.0E-03 Ry/Bohr, cell <  5.0E-01 kbar)

     End of BFGS Geometry Optimization

     Final enthalpy           =    -665.3399317496 Ry

     File ./Na3AlH6.bfgs deleted, as requested
Begin final coordinates
     new unit-cell volume =   1556.20638 a.u.^3 (   230.60599 Ang^3 )
     density =      1.46885 g/cm^3

CELL_PARAMETERS (alat= 10.00307627)
   1.013503883   0.000000000   0.000322361
   0.000000000   1.050600451   0.000000000
  -1.012596362   0.000000000   1.459848024

ATOMIC_POSITIONS (crystal)
Al           -0.0000000000        0.5000000000        0.5000000000
Al           -0.0000000000        0.0000000000       -0.0000000000
Na            0.5000000000        0.5000000000       -0.0000000000
Na            0.5000000000       -0.0000000000        0.5000000000
Na            0.7571379361        0.4532964183        0.7466124675
Na            0.2428620639        0.9532964183        0.7533875325
Na            0.2428620639        0.5467035817        0.2533875325
Na            0.7571379361        0.0467035817        0.2466124675
H             0.9024845177        0.2664212130        0.0629802908
H             0.0975154823        0.7664212130        0.4370197092
H             0.0975154823        0.7335787870        0.9370197092
H             0.9024845177        0.2335787870        0.5629802908
H             0.2275870030        0.3310851877        0.4566137388
H             0.7724129970        0.8310851877        0.0433862612
H             0.7724129970        0.6689148123        0.5433862612
H             0.2275870030        0.1689148123        0.9566137388
H             0.6845621549        0.4525392294        0.2840398407
H             0.3154378451        0.9525392294        0.2159601593
H             0.3154378451        0.5474607706        0.7159601593
H             0.6845621549        0.0474607706        0.7840398407
End final coordinates

     Writing config-only to output data dir ./Na3AlH6.save/

     Final scf calculation at the relaxed structure.
     The G-vectors are recalculated for the final unit cell
     Results may differ from those at the preceding step.

     Using Slab Decomposition

     bravais-lattice index     =            0
     lattice parameter (alat)  =      10.0031  a.u.
     unit-cell volume          =    1556.2064 (a.u.)^3
     number of atoms/cell      =           20
     number of atomic types    =            3
     number of electrons       =        72.00
     number of Kohn-Sham states=           43
     kinetic-energy cutoff     =      70.0000  Ry
     charge density cutoff     =     280.0000  Ry
     scf convergence threshold =      1.0E-10
     mixing beta               =       0.7000
     number of iterations used =            8  plain     mixing
     press convergence thresh. =      5.0E-01
     Exchange-correlation= PBE
                           (   1   4   3   4   0   0   0)

     celldm(1)=  10.003076  celldm(2)=   0.000000  celldm(3)=   0.000000
     celldm(4)=   0.000000  celldm(5)=   0.000000  celldm(6)=   0.000000

     crystal axes: (cart. coord. in units of alat)
               a(1) = (   1.013504   0.000000   0.000322 )
               a(2) = (   0.000000   1.050600   0.000000 )
               a(3) = (  -1.012596   0.000000   1.459848 )

     reciprocal axes: (cart. coord. in units 2 pi/alat)
               b(1) = (  0.986458  0.000000  0.684238 )
               b(2) = (  0.000000  0.951837  0.000000 )
               b(3) = ( -0.000218  0.000000  0.684852 )

     PseudoPot. # 1 for H  read from file:
     /scratch/antwerpen/209/vsc20922/pseudos/H.pbe-rrkjus_psl.1.0.0.UPF
     MD5 check sum: f52b6d4d1c606e5624b1dc7b2218f220
     Pseudo is Ultrasoft, Zval =  1.0
     Generated using "atomic" code by A. Dal Corso  v.5.1
     Using radial grid of  929 points,  2 beta functions with:
                l(1) =   0
                l(2) =   0
     Q(r) pseudized with 0 coefficients

     PseudoPot. # 2 for Al read from file:
     /scratch/antwerpen/209/vsc20922/pseudos/Al.pbe-n-kjpaw_psl.1.0.0.UPF
     MD5 check sum: cfc449ca30b5f3223ec38ddd88ac046d
     Pseudo is Projector augmented-wave + core cor, Zval =  3.0
     Generated using "atomic" code by A. Dal Corso  v.5.1
     Shape of augmentation charge: PSQ
     Using radial grid of 1135 points,  6 beta functions with:
                l(1) =   0
                l(2) =   0
                l(3) =   1
                l(4) =   1
                l(5) =   2
                l(6) =   2
     Q(r) pseudized with 0 coefficients

     PseudoPot. # 3 for Na read from file:
     /scratch/antwerpen/209/vsc20922/pseudos/na_pbe_v1.5.uspp.F.UPF
     MD5 check sum: 44600605ef58000f06b90626533354dc
     Pseudo is Ultrasoft, Zval =  9.0
     Generated by new atomic code, or converted to UPF format
     Using radial grid of  819 points,  5 beta functions with:
                l(1) =   0
                l(2) =   0
                l(3) =   1
                l(4) =   1
                l(5) =   2
     Q(r) pseudized with  8 coefficients,  rinner =    1.250   1.250   1.250
                                                       1.250   1.250

     atomic species   valence    mass     pseudopotential
        H              1.00     1.00750     H ( 1.00)
        Al             3.00    26.98100     Al( 1.00)
        Na             9.00    22.98900     Na( 1.00)

      4 Sym. Ops., with inversion, found ( 2 have fractional translation)

   Cartesian axes

     site n.     atom                  positions (alat units)
         1           Al  tau(   1) = (  -0.5062982   0.5253002   0.7299240  )
         2           Al  tau(   2) = (  -0.0000000   0.0000000  -0.0000000  )
         3           Na  tau(   3) = (   0.5067519   0.5253002   0.0001612  )
         4           Na  tau(   4) = (   0.0004538  -0.0000000   0.7300852  )
         5           Na  tau(   5) = (   0.0113452   0.4762334   1.0901848  )
         6           Na  tau(   6) = (  -0.5167358   1.0015336   1.0999096  )
         7           Na  tau(   7) = (  -0.0104376   0.5743670   0.3699856  )
         8           Na  tau(   8) = (   0.5176434   0.0490668   0.3602608  )
         9           H   tau(   9) = (   0.8508979   0.2799022   0.0922326  )
        10           H   tau(  10) = (  -0.3436922   0.8052025   0.6380138  )
        11           H   tau(  11) = (  -0.8499904   0.7706982   1.3679378  )
        12           H   tau(  12) = (   0.3445998   0.2453980   0.8221566  )
        13           H   tau(  13) = (  -0.2317051   0.3478382   0.6666600  )
        14           H   tau(  14) = (   0.7389108   0.8731385   0.0635863  )
        15           H   tau(  15) = (   0.2326126   0.7027622   0.7935104  )
        16           H   tau(  16) = (  -0.7380033   0.1774620   1.3965840  )
        17           H   tau(  17) = (   0.4061887   0.4754379   0.4148757  )
        18           H   tau(  18) = (   0.1010170   1.0007381   0.3153707  )
        19           H   tau(  19) = (  -0.4052812   0.5751625   1.0452947  )
        20           H   tau(  20) = (  -0.1001095   0.0498623   1.1447997  )

     number of k points=   100  Marzari-Vanderbilt smearing, width (Ry)=  0.0050

     Number of k-points >= 100: set verbosity='high' to print them.

     Initial potential from superposition of free atoms

     starting charge      71.9576, renormalised to      72.0000
     Starting wfcs are   50 randomized atomic wfcs
     Checking if some PAW data can be deallocated...

     Self-consistent Calculation

     iteration #  1     ecut=    70.00 Ry     beta= 0.70
     Davidson diagonalization with overlap
     c_bands:  3 eigenvalues not converged
     c_bands:  4 eigenvalues not converged
     c_bands:  2 eigenvalues not converged
     c_bands:  1 eigenvalues not converged
     c_bands:  3 eigenvalues not converged
     c_bands:  4 eigenvalues not converged
     c_bands:  3 eigenvalues not converged
     c_bands:  1 eigenvalues not converged
     c_bands:  2 eigenvalues not converged
     c_bands:  2 eigenvalues not converged
     c_bands:  2 eigenvalues not converged
     c_bands:  2 eigenvalues not converged
     c_bands:  1 eigenvalues not converged
     c_bands:  2 eigenvalues not converged
     c_bands:  3 eigenvalues not converged
     c_bands:  1 eigenvalues not converged
     c_bands:  2 eigenvalues not converged
     c_bands:  1 eigenvalues not converged
     c_bands:  1 eigenvalues not converged
     c_bands:  2 eigenvalues not converged
     c_bands:  2 eigenvalues not converged
     c_bands:  4 eigenvalues not converged
     c_bands:  3 eigenvalues not converged
     c_bands:  3 eigenvalues not converged
     c_bands:  2 eigenvalues not converged
     c_bands:  2 eigenvalues not converged
     c_bands:  2 eigenvalues not converged
     c_bands:  2 eigenvalues not converged
     c_bands:  4 eigenvalues not converged
     c_bands:  2 eigenvalues not converged
     c_bands:  3 eigenvalues not converged
     c_bands:  1 eigenvalues not converged
     c_bands:  2 eigenvalues not converged
     c_bands:  2 eigenvalues not converged
     c_bands:  2 eigenvalues not converged
     c_bands:  1 eigenvalues not converged
     c_bands:  3 eigenvalues not converged
     c_bands:  2 eigenvalues not converged
     c_bands:  2 eigenvalues not converged
     c_bands:  2 eigenvalues not converged
     c_bands:  1 eigenvalues not converged
     c_bands:  3 eigenvalues not converged
     c_bands:  2 eigenvalues not converged
     c_bands:  2 eigenvalues not converged
     c_bands:  3 eigenvalues not converged
     c_bands:  1 eigenvalues not converged
     c_bands:  1 eigenvalues not converged
     c_bands:  4 eigenvalues not converged
     c_bands:  3 eigenvalues not converged
     c_bands:  1 eigenvalues not converged
     c_bands:  1 eigenvalues not converged
     c_bands:  2 eigenvalues not converged
     c_bands:  2 eigenvalues not converged
     c_bands:  2 eigenvalues not converged
     c_bands:  2 eigenvalues not converged
     c_bands:  2 eigenvalues not converged
     c_bands:  2 eigenvalues not converged
     c_bands:  2 eigenvalues not converged
     c_bands:  2 eigenvalues not converged
     c_bands:  2 eigenvalues not converged
[...]
     c_bands:  2 eigenvalues not converged
     c_bands:  2 eigenvalues not converged
     c_bands:  1 eigenvalues not converged
     c_bands:  2 eigenvalues not converged
     c_bands:  2 eigenvalues not converged
     c_bands:  2 eigenvalues not converged
     c_bands:  2 eigenvalues not converged
     c_bands:  1 eigenvalues not converged
     c_bands:  2 eigenvalues not converged
     c_bands:  2 eigenvalues not converged
     c_bands:  2 eigenvalues not converged
     c_bands:  2 eigenvalues not converged
     c_bands:  2 eigenvalues not converged
     c_bands:  2 eigenvalues not converged
     c_bands:  2 eigenvalues not converged
     ethr =  1.00E-06,  avg # of iterations = 20.0

[...]

     total energy              =    -665.34007656 Ry
     estimated scf accuracy    <          3.7E-09 Ry

     iteration # 10     ecut=    70.00 Ry     beta= 0.70
     Davidson diagonalization with overlap
     ethr =  5.16E-12,  avg # of iterations =  2.5

     End of self-consistent calculation

     Number of k-points >= 100: set verbosity='high' to print the bands.

     the Fermi energy is     3.1979 ev

!    total energy              =    -665.34007656 Ry
     estimated scf accuracy    <          1.2E-11 Ry
     smearing contrib. (-TS)   =       0.00000000 Ry
     internal energy E=F+TS    =    -665.34007656 Ry

     The total energy is F=E-TS. E is the sum of the following terms:
     one-electron contribution =    -487.84925393 Ry
     hartree contribution      =     256.96421780 Ry
     xc contribution           =    -100.09887682 Ry
     ewald contribution        =    -265.02690179 Ry
     one-center paw contrib.   =     -69.32926182 Ry

     convergence has been achieved in  10 iterations

     Forces acting on atoms (cartesian axes, Ry/au):

     atom    1 type  2   force =     0.00000000    0.00000000   -0.00000000
     atom    2 type  2   force =     0.00000000    0.00000000    0.00000000
     atom    3 type  3   force =     0.00000000    0.00000000    0.00000000
     atom    4 type  3   force =     0.00000000    0.00000000    0.00000000
     atom    5 type  3   force =    -0.00017256    0.00025021    0.00000558
     atom    6 type  3   force =     0.00017256    0.00025021   -0.00000558
     atom    7 type  3   force =     0.00017256   -0.00025021   -0.00000558
     atom    8 type  3   force =    -0.00017256   -0.00025021    0.00000558
     atom    9 type  1   force =     0.00005259    0.00008454    0.00012874
     atom   10 type  1   force =    -0.00005259    0.00008454   -0.00012874
     atom   11 type  1   force =    -0.00005259   -0.00008454   -0.00012874
     atom   12 type  1   force =     0.00005259   -0.00008454    0.00012874
     atom   13 type  1   force =     0.00006843   -0.00005020   -0.00007179
     atom   14 type  1   force =    -0.00006843   -0.00005020    0.00007179
     atom   15 type  1   force =    -0.00006843    0.00005020    0.00007179
     atom   16 type  1   force =     0.00006843    0.00005020   -0.00007179
     atom   17 type  1   force =    -0.00001965   -0.00005802    0.00006994
     atom   18 type  1   force =     0.00001965   -0.00005802   -0.00006994
     atom   19 type  1   force =     0.00001965    0.00005802   -0.00006994
     atom   20 type  1   force =    -0.00001965    0.00005802    0.00006994

     Total force =     0.000748     Total SCF correction =     0.000003

     Computing stress (Cartesian axis) and pressure

          total   stress  (Ry/bohr**3)                   (kbar)     P=       -0.14
  -0.00000042   0.00000000   0.00000035           -0.06        0.00        0.05
   0.00000000  -0.00000222   0.00000000            0.00       -0.33        0.00
   0.00000035   0.00000000  -0.00000021            0.05        0.00       -0.03

     Writing all to output data dir ./Na3AlH6.save/

     General routines

     Parallel routines

   This run was terminated on:  15:53:47   3Dec2023

   JOB DONE.