     Program PWSCF v.7.1 starts on  3Dec2023 at 15:53:48

     Reading input from Na5Al3H14_opt.in

     Current dimensions of program PWSCF are:
     Max number of different atomic species (ntypx) = 10
     Max number of k-points (npk) =  40000
     Max angular momentum in pseudopotentials (lmaxx) =  4
     file Al.pbe-n-kjpaw_psl.1.0.0.UPF: wavefunction(s)  3S 3P renormalized

     IMPORTANT: XC functional enforced from input :
     Exchange-correlation= PBE
                           (   1   4   3   4   0   0   0)
     Any further DFT definition will be discarded
     Please, verify this is what you really want

     Message from routine setup:
     using ibrav=0 with symmetry is DISCOURAGED, use correct ibrav instead

     R & G space division:  proc/nbgrp/npool/nimage =      28
     Subspace diagonalization in iterative solution of the eigenvalue problem:
     a serial algorithm will be used

     Using Slab Decomposition

     bravais-lattice index     =            0
     lattice parameter (alat)  =      12.6114  a.u.
     unit-cell volume          =    3067.3055 (a.u.)^3
     number of atoms/cell      =           44
     number of atomic types    =            3
     number of electrons       =       136.00
     number of Kohn-Sham states=           82
     kinetic-energy cutoff     =      70.0000  Ry
     charge density cutoff     =     280.0000  Ry
     scf convergence threshold =      1.0E-08
     mixing beta               =       0.7000
     number of iterations used =            8  plain     mixing
     energy convergence thresh.=      1.0E-04
     force convergence thresh. =      1.0E-03
     press convergence thresh. =      5.0E-01
     Exchange-correlation= PBE
                           (   1   4   3   4   0   0   0)
     nstep                     =           50

     celldm(1)=  12.611352  celldm(2)=   0.000000  celldm(3)=   0.000000
     celldm(4)=   0.000000  celldm(5)=   0.000000  celldm(6)=   0.000000

     crystal axes: (cart. coord. in units of alat)
               a(1) = (   1.000000   0.000000   0.000000 )
               a(2) = (   0.000000   1.000000   0.000000 )
               a(3) = (   0.000000   0.000000   1.529228 )

     reciprocal axes: (cart. coord. in units 2 pi/alat)
               b(1) = (  1.000000  0.000000  0.000000 )
               b(2) = (  0.000000  1.000000  0.000000 )
               b(3) = (  0.000000  0.000000  0.653925 )

     PseudoPot. # 1 for H  read from file:
     /scratch/antwerpen/209/vsc20922/pseudos/H.pbe-rrkjus_psl.1.0.0.UPF
     MD5 check sum: f52b6d4d1c606e5624b1dc7b2218f220
     Pseudo is Ultrasoft, Zval =  1.0
     Generated using "atomic" code by A. Dal Corso  v.5.1
     Using radial grid of  929 points,  2 beta functions with:
                l(1) =   0
                l(2) =   0
     Q(r) pseudized with 0 coefficients

     PseudoPot. # 2 for Al read from file:
     /scratch/antwerpen/209/vsc20922/pseudos/Al.pbe-n-kjpaw_psl.1.0.0.UPF
     MD5 check sum: cfc449ca30b5f3223ec38ddd88ac046d
     Pseudo is Projector augmented-wave + core cor, Zval =  3.0
     Generated using "atomic" code by A. Dal Corso  v.5.1
     Shape of augmentation charge: PSQ
     Using radial grid of 1135 points,  6 beta functions with:
                l(1) =   0
                l(2) =   0
                l(3) =   1
                l(4) =   1
                l(5) =   2
                l(6) =   2
     Q(r) pseudized with 0 coefficients

     PseudoPot. # 3 for Na read from file:
     /scratch/antwerpen/209/vsc20922/pseudos/na_pbe_v1.5.uspp.F.UPF
     MD5 check sum: 44600605ef58000f06b90626533354dc
     Pseudo is Ultrasoft, Zval =  9.0
     Generated by new atomic code, or converted to UPF format
     Using radial grid of  819 points,  5 beta functions with:
                l(1) =   0
                l(2) =   0
                l(3) =   1
                l(4) =   1
                l(5) =   2
     Q(r) pseudized with  8 coefficients,  rinner =    1.250   1.250   1.250
                                                       1.250   1.250

     atomic species   valence    mass     pseudopotential
        H              1.00     1.00750     H ( 1.00)
        Al             3.00    26.98100     Al( 1.00)
        Na             9.00    22.98900     Na( 1.00)

     16 Sym. Ops., with inversion, found ( 8 have fractional translation)

   Cartesian axes

     site n.     atom                  positions (alat units)
         1           Al  tau(   1) = (   0.0000000   0.0000000   0.0000000  )
         2           Al  tau(   2) = (   0.5000000   0.5000000   0.7646138  )
         3           Al  tau(   3) = (   0.0000000   0.5000000   0.0000000  )
         4           Al  tau(   4) = (   0.5000000   0.0000000   0.0000000  )
         5           Al  tau(   5) = (   0.5000000   0.0000000   0.7646138  )
         6           Al  tau(   6) = (   0.0000000   0.5000000   0.7646138  )
         7           Na  tau(   7) = (   0.0000000   0.0000000   0.7646138  )
         8           Na  tau(   8) = (   0.5000000   0.5000000   0.0000000  )
         9           Na  tau(   9) = (   0.2873471   0.7873471   0.3823069  )
        10           Na  tau(  10) = (   0.2126529   0.2873471   0.3823069  )
        11           Na  tau(  11) = (   0.7873471   0.7126529   0.3823069  )
        12           Na  tau(  12) = (   0.7126529   0.2126529   0.3823069  )
        13           Na  tau(  13) = (   0.2873471   0.7873471   1.1469206  )
        14           Na  tau(  14) = (   0.2126529   0.2873471   1.1469206  )
        15           Na  tau(  15) = (   0.7873471   0.7126529   1.1469206  )
        16           Na  tau(  16) = (   0.7126529   0.2126529   1.1469206  )
        17           H   tau(  17) = (   0.5437980   0.8200507   0.1797052  )
        18           H   tau(  18) = (   0.4562020   0.1799493   0.1797052  )
        19           H   tau(  19) = (   0.3200507   0.0437980   0.5849086  )
        20           H   tau(  20) = (   0.8200507   0.4562020   0.1797052  )
        21           H   tau(  21) = (   0.1799493   0.5437980   0.1797052  )
        22           H   tau(  22) = (   0.9562020   0.3200507   0.5849086  )
        23           H   tau(  23) = (   0.0437980   0.6799493   0.5849086  )
        24           H   tau(  24) = (   0.6799493   0.9562020   0.5849086  )
        25           H   tau(  25) = (   0.4562020   0.1799493   1.3495223  )
        26           H   tau(  26) = (   0.5437980   0.8200507   1.3495223  )
        27           H   tau(  27) = (   0.6799493   0.9562020   0.9443189  )
        28           H   tau(  28) = (   0.1799493   0.5437980   1.3495223  )
        29           H   tau(  29) = (   0.8200507   0.4562020   1.3495223  )
        30           H   tau(  30) = (   0.0437980   0.6799493   0.9443189  )
        31           H   tau(  31) = (   0.9562020   0.3200507   0.9443189  )
        32           H   tau(  32) = (   0.3200507   0.0437980   0.9443189  )
        33           H   tau(  33) = (   0.0000000   0.0000000   0.2607407  )
        34           H   tau(  34) = (   0.5000000   0.5000000   0.5038731  )
        35           H   tau(  35) = (   0.0000000   0.0000000   1.2684868  )
        36           H   tau(  36) = (   0.5000000   0.5000000   1.0253544  )
        37           H   tau(  37) = (   0.7523734   0.0751217   0.0000000  )
        38           H   tau(  38) = (   0.9248783   0.7523734   0.0000000  )
        39           H   tau(  39) = (   0.0751217   0.2476266   0.0000000  )
        40           H   tau(  40) = (   0.2523734   0.4248783   0.7646138  )
        41           H   tau(  41) = (   0.7476266   0.5751217   0.7646138  )
        42           H   tau(  42) = (   0.2476266   0.9248783   0.0000000  )
        43           H   tau(  43) = (   0.5751217   0.2523734   0.7646138  )
        44           H   tau(  44) = (   0.4248783   0.7476266   0.7646138  )

     number of k points=    40  Marzari-Vanderbilt smearing, width (Ry)=  0.0050
                       cart. coord. in units 2pi/alat
        k(    1) = (   0.0000000   0.0000000   0.0000000), wk =   0.0058309
        k(    2) = (   0.0000000   0.0000000   0.0934178), wk =   0.0116618
        k(    3) = (   0.0000000   0.0000000   0.1868357), wk =   0.0116618
        k(    4) = (   0.0000000   0.0000000   0.2802535), wk =   0.0116618
        k(    5) = (   0.0000000   0.1428571   0.0000000), wk =   0.0233236
        k(    6) = (   0.0000000   0.1428571   0.0934178), wk =   0.0466472
        k(    7) = (   0.0000000   0.1428571   0.1868357), wk =   0.0466472
        k(    8) = (   0.0000000   0.1428571   0.2802535), wk =   0.0466472
        k(    9) = (   0.0000000   0.2857143   0.0000000), wk =   0.0233236
        k(   10) = (   0.0000000   0.2857143   0.0934178), wk =   0.0466472
        k(   11) = (   0.0000000   0.2857143   0.1868357), wk =   0.0466472
        k(   12) = (   0.0000000   0.2857143   0.2802535), wk =   0.0466472
        k(   13) = (   0.0000000   0.4285714   0.0000000), wk =   0.0233236
        k(   14) = (   0.0000000   0.4285714   0.0934178), wk =   0.0466472
        k(   15) = (   0.0000000   0.4285714   0.1868357), wk =   0.0466472
        k(   16) = (   0.0000000   0.4285714   0.2802535), wk =   0.0466472
        k(   17) = (   0.1428571   0.1428571   0.0000000), wk =   0.0233236
        k(   18) = (   0.1428571   0.1428571   0.0934178), wk =   0.0466472
        k(   19) = (   0.1428571   0.1428571   0.1868357), wk =   0.0466472
        k(   20) = (   0.1428571   0.1428571   0.2802535), wk =   0.0466472
        k(   21) = (   0.1428571   0.2857143   0.0000000), wk =   0.0466472
        k(   22) = (   0.1428571   0.2857143   0.0934178), wk =   0.0932945
        k(   23) = (   0.1428571   0.2857143   0.1868357), wk =   0.0932945
        k(   24) = (   0.1428571   0.2857143   0.2802535), wk =   0.0932945
        k(   25) = (   0.1428571   0.4285714   0.0000000), wk =   0.0466472
        k(   26) = (   0.1428571   0.4285714   0.0934178), wk =   0.0932945
        k(   27) = (   0.1428571   0.4285714   0.1868357), wk =   0.0932945
        k(   28) = (   0.1428571   0.4285714   0.2802535), wk =   0.0932945
        k(   29) = (   0.2857143   0.2857143   0.0000000), wk =   0.0233236
        k(   30) = (   0.2857143   0.2857143   0.0934178), wk =   0.0466472
        k(   31) = (   0.2857143   0.2857143   0.1868357), wk =   0.0466472
        k(   32) = (   0.2857143   0.2857143   0.2802535), wk =   0.0466472
        k(   33) = (   0.2857143   0.4285714   0.0000000), wk =   0.0466472
        k(   34) = (   0.2857143   0.4285714   0.0934178), wk =   0.0932945
        k(   35) = (   0.2857143   0.4285714   0.1868357), wk =   0.0932945
        k(   36) = (   0.2857143   0.4285714   0.2802535), wk =   0.0932945
        k(   37) = (   0.4285714   0.4285714   0.0000000), wk =   0.0233236
        k(   38) = (   0.4285714   0.4285714   0.0934178), wk =   0.0466472
        k(   39) = (   0.4285714   0.4285714   0.1868357), wk =   0.0466472
        k(   40) = (   0.4285714   0.4285714   0.2802535), wk =   0.0466472

     Initial potential from superposition of free atoms

     starting charge     135.9231, renormalised to     136.0000
     Starting wfcs are  102 randomized atomic wfcs
[...]
H             0.7477548432        0.5749812211        0.5000000000
H             0.2477548432        0.9250187789       -0.0000000000
H             0.5749812211        0.2522451568        0.5000000000
H             0.4250187789        0.7477548432        0.5000000000
End final coordinates

     Writing config-only to output data dir ./Na5Al3H14.save/

     Final scf calculation at the relaxed structure.
     The G-vectors are recalculated for the final unit cell
     Results may differ from those at the preceding step.

     Using Slab Decomposition

     bravais-lattice index     =            0
     lattice parameter (alat)  =      12.6114  a.u.
     unit-cell volume          =    3189.9291 (a.u.)^3
     number of atoms/cell      =           44
     number of atomic types    =            3
     number of electrons       =       136.00
     number of Kohn-Sham states=           82
     kinetic-energy cutoff     =      70.0000  Ry
     charge density cutoff     =     280.0000  Ry
     scf convergence threshold =      1.0E-10
     mixing beta               =       0.7000
     number of iterations used =            8  plain     mixing
     press convergence thresh. =      5.0E-01
     Exchange-correlation= PBE
                           (   1   4   3   4   0   0   0)

     celldm(1)=  12.611352  celldm(2)=   0.000000  celldm(3)=   0.000000
     celldm(4)=   0.000000  celldm(5)=   0.000000  celldm(6)=   0.000000

     crystal axes: (cart. coord. in units of alat)
               a(1) = (   1.012349   0.000000   0.000000 )
               a(2) = (   0.000000   1.012349   0.000000 )
               a(3) = (   0.000000   0.000000   1.551798 )

     reciprocal axes: (cart. coord. in units 2 pi/alat)
               b(1) = (  0.987801  0.000000  0.000000 )
               b(2) = (  0.000000  0.987801  0.000000 )
               b(3) = (  0.000000  0.000000  0.644414 )

     PseudoPot. # 1 for H  read from file:
     /scratch/antwerpen/209/vsc20922/pseudos/H.pbe-rrkjus_psl.1.0.0.UPF
     MD5 check sum: f52b6d4d1c606e5624b1dc7b2218f220
     Pseudo is Ultrasoft, Zval =  1.0
     Generated using "atomic" code by A. Dal Corso  v.5.1
     Using radial grid of  929 points,  2 beta functions with:
                l(1) =   0
                l(2) =   0
     Q(r) pseudized with 0 coefficients

     PseudoPot. # 2 for Al read from file:
     /scratch/antwerpen/209/vsc20922/pseudos/Al.pbe-n-kjpaw_psl.1.0.0.UPF
     MD5 check sum: cfc449ca30b5f3223ec38ddd88ac046d
     Pseudo is Projector augmented-wave + core cor, Zval =  3.0
     Generated using "atomic" code by A. Dal Corso  v.5.1
     Shape of augmentation charge: PSQ
     Using radial grid of 1135 points,  6 beta functions with:
                l(1) =   0
                l(2) =   0
                l(3) =   1
                l(4) =   1
                l(5) =   2
                l(6) =   2
     Q(r) pseudized with 0 coefficients

     PseudoPot. # 3 for Na read from file:
     /scratch/antwerpen/209/vsc20922/pseudos/na_pbe_v1.5.uspp.F.UPF
     MD5 check sum: 44600605ef58000f06b90626533354dc
     Pseudo is Ultrasoft, Zval =  9.0
     Generated by new atomic code, or converted to UPF format
     Using radial grid of  819 points,  5 beta functions with:
                l(1) =   0
                l(2) =   0
                l(3) =   1
                l(4) =   1
                l(5) =   2
     Q(r) pseudized with  8 coefficients,  rinner =    1.250   1.250   1.250
                                                       1.250   1.250

     atomic species   valence    mass     pseudopotential
        H              1.00     1.00750     H ( 1.00)
        Al             3.00    26.98100     Al( 1.00)
        Na             9.00    22.98900     Na( 1.00)

     16 Sym. Ops., with inversion, found ( 8 have fractional translation)

   Cartesian axes

     site n.     atom                  positions (alat units)
         1           Al  tau(   1) = (   0.0000000   0.0000000  -0.0000000  )
         2           Al  tau(   2) = (   0.5061747   0.5061747   0.7758992  )
         3           Al  tau(   3) = (   0.0000000   0.5061747  -0.0000000  )
         4           Al  tau(   4) = (   0.5061747   0.0000000  -0.0000000  )
         5           Al  tau(   5) = (   0.5061747   0.0000000   0.7758992  )
         6           Al  tau(   6) = (   0.0000000   0.5061747   0.7758992  )
         7           Na  tau(   7) = (   0.0000000   0.0000000   0.7758992  )
         8           Na  tau(   8) = (   0.5061747   0.5061747  -0.0000000  )
         9           Na  tau(   9) = (   0.2902370   0.7964117   0.3879496  )
        10           Na  tau(  10) = (   0.2159376   0.2902370   0.3879496  )
        11           Na  tau(  11) = (   0.7964117   0.7221123   0.3879496  )
        12           Na  tau(  12) = (   0.7221123   0.2159376   0.3879496  )
        13           Na  tau(  13) = (   0.2902370   0.7964117   1.1638488  )
        14           Na  tau(  14) = (   0.2159376   0.2902370   1.1638488  )
        15           Na  tau(  15) = (   0.7964117   0.7221123   1.1638488  )
        16           Na  tau(  16) = (   0.7221123   0.2159376   1.1638488  )
        17           H   tau(  17) = (   0.5503994   0.8312130   0.1821773  )
        18           H   tau(  18) = (   0.4619499   0.1811363   0.1821773  )
        19           H   tau(  19) = (   0.3250384   0.0442248   0.5937219  )
        20           H   tau(  20) = (   0.8312130   0.4619499   0.1821773  )
        21           H   tau(  21) = (   0.1811363   0.5503994   0.1821773  )
        22           H   tau(  22) = (   0.9681246   0.3250384   0.5937219  )
        23           H   tau(  23) = (   0.0442248   0.6873110   0.5937219  )
        24           H   tau(  24) = (   0.6873110   0.9681246   0.5937219  )
        25           H   tau(  25) = (   0.4619499   0.1811363   1.3696211  )
        26           H   tau(  26) = (   0.5503994   0.8312130   1.3696211  )
        27           H   tau(  27) = (   0.6873110   0.9681246   0.9580765  )
        28           H   tau(  28) = (   0.1811363   0.5503994   1.3696211  )
        29           H   tau(  29) = (   0.8312130   0.4619499   1.3696211  )
        30           H   tau(  30) = (   0.0442248   0.6873110   0.9580765  )
        31           H   tau(  31) = (   0.9681246   0.3250384   0.9580765  )
        32           H   tau(  32) = (   0.3250384   0.0442248   0.9580765  )
        33           H   tau(  33) = (   0.0000000   0.0000000   0.2623865  )
        34           H   tau(  34) = (   0.5061747   0.5061747   0.5135127  )
        35           H   tau(  35) = (   0.0000000   0.0000000   1.2894119  )
        36           H   tau(  36) = (   0.5061747   0.5061747   1.0382857  )
        37           H   tau(  37) = (   0.7615349   0.0759072   0.0000000  )
        38           H   tau(  38) = (   0.9364421   0.7615349   0.0000000  )
        39           H   tau(  39) = (   0.0759072   0.2508145  -0.0000000  )
        40           H   tau(  40) = (   0.2553602   0.4302675   0.7758992  )
        41           H   tau(  41) = (   0.7569891   0.5820819   0.7758992  )
        42           H   tau(  42) = (   0.2508145   0.9364421  -0.0000000  )
        43           H   tau(  43) = (   0.5820819   0.2553602   0.7758992  )
        44           H   tau(  44) = (   0.4302675   0.7569891   0.7758992  )

     number of k points=    40  Marzari-Vanderbilt smearing, width (Ry)=  0.0050
                       cart. coord. in units 2pi/alat
        k(    1) = (   0.0000000   0.0000000   0.0000000), wk =   0.0058309
        k(    2) = (   0.0000000   0.0000000   0.0920591), wk =   0.0116618
        k(    3) = (   0.0000000   0.0000000   0.1841182), wk =   0.0116618
        k(    4) = (   0.0000000   0.0000000   0.2761773), wk =   0.0116618
        k(    5) = (   0.0000000   0.1411145   0.0000000), wk =   0.0233236
        k(    6) = (   0.0000000   0.1411145   0.0920591), wk =   0.0466472
        k(    7) = (   0.0000000   0.1411145   0.1841182), wk =   0.0466472
        k(    8) = (   0.0000000   0.1411145   0.2761773), wk =   0.0466472
        k(    9) = (   0.0000000   0.2822289   0.0000000), wk =   0.0233236
        k(   10) = (   0.0000000   0.2822289   0.0920591), wk =   0.0466472
        k(   11) = (   0.0000000   0.2822289   0.1841182), wk =   0.0466472
        k(   12) = (   0.0000000   0.2822289   0.2761773), wk =   0.0466472
        k(   13) = (   0.0000000   0.4233434   0.0000000), wk =   0.0233236
        k(   14) = (   0.0000000   0.4233434   0.0920591), wk =   0.0466472
        k(   15) = (   0.0000000   0.4233434   0.1841182), wk =   0.0466472
        k(   16) = (   0.0000000   0.4233434   0.2761773), wk =   0.0466472
        k(   17) = (   0.1411145   0.1411145   0.0000000), wk =   0.0233236
        k(   18) = (   0.1411145   0.1411145   0.0920591), wk =   0.0466472
        k(   19) = (   0.1411145   0.1411145   0.1841182), wk =   0.0466472
        k(   20) = (   0.1411145   0.1411145   0.2761773), wk =   0.0466472
        k(   21) = (   0.1411145   0.2822289   0.0000000), wk =   0.0466472
        k(   22) = (   0.1411145   0.2822289   0.0920591), wk =   0.0932945
        k(   23) = (   0.1411145   0.2822289   0.1841182), wk =   0.0932945
        k(   24) = (   0.1411145   0.2822289   0.2761773), wk =   0.0932945
        k(   25) = (   0.1411145   0.4233434   0.0000000), wk =   0.0466472
        k(   26) = (   0.1411145   0.4233434   0.0920591), wk =   0.0932945
        k(   27) = (   0.1411145   0.4233434   0.1841182), wk =   0.0932945
        k(   28) = (   0.1411145   0.4233434   0.2761773), wk =   0.0932945
        k(   29) = (   0.2822289   0.2822289   0.0000000), wk =   0.0233236
        k(   30) = (   0.2822289   0.2822289   0.0920591), wk =   0.0466472
        k(   31) = (   0.2822289   0.2822289   0.1841182), wk =   0.0466472
        k(   32) = (   0.2822289   0.2822289   0.2761773), wk =   0.0466472
        k(   33) = (   0.2822289   0.4233434   0.0000000), wk =   0.0466472
        k(   34) = (   0.2822289   0.4233434   0.0920591), wk =   0.0932945
        k(   35) = (   0.2822289   0.4233434   0.1841182), wk =   0.0932945
        k(   36) = (   0.2822289   0.4233434   0.2761773), wk =   0.0932945
        k(   37) = (   0.4233434   0.4233434   0.0000000), wk =   0.0233236
        k(   38) = (   0.4233434   0.4233434   0.0920591), wk =   0.0466472
        k(   39) = (   0.4233434   0.4233434   0.1841182), wk =   0.0466472
        k(   40) = (   0.4233434   0.4233434   0.2761773), wk =   0.0466472

     Initial potential from superposition of free atoms

     starting charge     135.9231, renormalised to     136.0000
     Starting wfcs are  102 randomized atomic wfcs
     Checking if some PAW data can be deallocated...

     Self-consistent Calculation

[...]

     iteration #  4     ecut=    70.00 Ry     beta= 0.70
     Davidson diagonalization with overlap
     c_bands:  1 eigenvalues not converged
     ethr =  4.62E-06,  avg # of iterations =  9.9

[...]

     total energy              =   -1223.64574347 Ry
     estimated scf accuracy    <          1.1E-10 Ry

     iteration # 11     ecut=    70.00 Ry     beta= 0.70
     Davidson diagonalization with overlap
     ethr =  1.00E-13,  avg # of iterations =  2.2

     End of self-consistent calculation

[...]

          k = 0.4233 0.4233 0.2762 ( 31547 PWs)   bands (ev):

   -49.5167 -49.5167 -49.1976 -49.1976 -49.1972 -49.1972 -49.1971 -49.1971
   -49.1966 -49.1966 -21.4608 -21.4608 -21.4243 -21.4243 -21.4241 -21.4241
   -21.1495 -21.1495 -21.1469 -21.1468 -21.1429 -21.1429 -21.1387 -21.1386
   -21.1280 -21.1280 -21.1237 -21.1236 -21.1185 -21.1185 -21.1157 -21.1156
   -21.1115 -21.1114 -21.1093 -21.1093 -21.1084 -21.1081 -21.1069 -21.1068
    -5.2520  -5.2260  -4.8116  -4.7503  -4.6473  -4.6135  -2.3248  -2.3244
    -1.4815  -1.3394  -1.2912  -1.1241  -1.0989  -1.0817  -0.6558  -0.6048
    -0.5574  -0.5068  -0.3378  -0.3281  -0.0648  -0.0403   0.0836   0.1105
     0.8404   0.8565   1.5318   1.5352   5.3496   5.3745   5.4354   5.5442
     5.6382   5.7892   6.4193   6.5015   6.8351   6.8986   7.0567   7.1294
     7.1372   7.2525

     the Fermi energy is     2.8951 ev

!    total energy              =   -1223.64574347 Ry
     estimated scf accuracy    <          1.3E-11 Ry
     smearing contrib. (-TS)   =       0.00000000 Ry
     internal energy E=F+TS    =   -1223.64574347 Ry

     The total energy is F=E-TS. E is the sum of the following terms:
     one-electron contribution =    -825.89825859 Ry
     hartree contribution      =     440.70916430 Ry
     xc contribution           =    -179.52132311 Ry
     ewald contribution        =    -450.92981072 Ry
     one-center paw contrib.   =    -208.00551535 Ry

     convergence has been achieved in  11 iterations

     Forces acting on atoms (cartesian axes, Ry/au):

     atom    1 type  2   force =     0.00000000    0.00000000   -0.00000000
     atom    2 type  2   force =     0.00000000    0.00000000   -0.00000000
     atom    3 type  2   force =     0.00000000    0.00000000    0.00000000
     atom    4 type  2   force =     0.00000000    0.00000000   -0.00000000
     atom    5 type  2   force =     0.00000000    0.00000000   -0.00000000
     atom    6 type  2   force =     0.00000000    0.00000000   -0.00000000
     atom    7 type  3   force =     0.00000000    0.00000000   -0.00000000
     atom    8 type  3   force =     0.00000000    0.00000000   -0.00000000
     atom    9 type  3   force =    -0.00013720   -0.00013720    0.00000000
     atom   10 type  3   force =     0.00013720   -0.00013720    0.00000000
     atom   11 type  3   force =    -0.00013720    0.00013720    0.00000000
     atom   12 type  3   force =     0.00013720    0.00013720    0.00000000
     atom   13 type  3   force =    -0.00013720   -0.00013720    0.00000000
     atom   14 type  3   force =     0.00013720   -0.00013720   -0.00000000
     atom   15 type  3   force =    -0.00013720    0.00013720   -0.00000000
     atom   16 type  3   force =     0.00013720    0.00013720    0.00000000
     atom   17 type  1   force =    -0.00011845   -0.00027220    0.00012697
     atom   18 type  1   force =     0.00011845    0.00027220    0.00012697
     atom   19 type  1   force =    -0.00027220   -0.00011845   -0.00012697
     atom   20 type  1   force =    -0.00027220    0.00011845    0.00012697
     atom   21 type  1   force =     0.00027220   -0.00011845    0.00012697
     atom   22 type  1   force =     0.00011845   -0.00027220   -0.00012697
     atom   23 type  1   force =    -0.00011845    0.00027220   -0.00012697
     atom   24 type  1   force =     0.00027220    0.00011845   -0.00012697
     atom   25 type  1   force =     0.00011845    0.00027220   -0.00012697
     atom   26 type  1   force =    -0.00011845   -0.00027220   -0.00012697
     atom   27 type  1   force =     0.00027220    0.00011845    0.00012697
     atom   28 type  1   force =     0.00027220   -0.00011845   -0.00012697
     atom   29 type  1   force =    -0.00027220    0.00011845   -0.00012697
     atom   30 type  1   force =    -0.00011845    0.00027220    0.00012697
     atom   31 type  1   force =     0.00011845   -0.00027220    0.00012697
     atom   32 type  1   force =    -0.00027220   -0.00011845    0.00012697
     atom   33 type  1   force =     0.00000000    0.00000000    0.00014314
     atom   34 type  1   force =     0.00000000    0.00000000   -0.00014314
     atom   35 type  1   force =     0.00000000    0.00000000   -0.00014314
     atom   36 type  1   force =     0.00000000    0.00000000    0.00014314
     atom   37 type  1   force =    -0.00007463   -0.00028424   -0.00000000
     atom   38 type  1   force =     0.00028424   -0.00007463    0.00000000
     atom   39 type  1   force =    -0.00028424    0.00007463    0.00000000
     atom   40 type  1   force =    -0.00007463    0.00028424    0.00000000
     atom   41 type  1   force =     0.00007463   -0.00028424    0.00000000
     atom   42 type  1   force =     0.00007463    0.00028424   -0.00000000
     atom   43 type  1   force =    -0.00028424   -0.00007463    0.00000000
     atom   44 type  1   force =     0.00028424    0.00007463   -0.00000000

     Total force =     0.001656     Total SCF correction =     0.000003

     Computing stress (Cartesian axis) and pressure

          total   stress  (Ry/bohr**3)                   (kbar)     P=        0.13
   0.00000047   0.00000000   0.00000000            0.07        0.00        0.00
   0.00000000   0.00000047   0.00000000            0.00        0.07        0.00
   0.00000000   0.00000000   0.00000164            0.00        0.00        0.24

     Writing all to output data dir ./Na5Al3H14.save/

     General routines

     Parallel routines

   This run was terminated on:  16:27:11   3Dec2023

   JOB DONE.