     Program PWSCF v.7.1 starts on  3Dec2023 at 16:27:22

     Reading input from NaAlH4_opt.in

     Current dimensions of program PWSCF are:
     Max number of different atomic species (ntypx) = 10
     Max number of k-points (npk) =  40000
     Max angular momentum in pseudopotentials (lmaxx) =  4
     file Al.pbe-n-kjpaw_psl.1.0.0.UPF: wavefunction(s)  3S 3P renormalized

     IMPORTANT: XC functional enforced from input :
     Exchange-correlation= PBE
                           (   1   4   3   4   0   0   0)
     Any further DFT definition will be discarded
     Please, verify this is what you really want

     Found identity + ( -0.5000  0.5000  0.5000) symmetry
     This is a supercell, fractional translations are disabled
     Message from routine setup:
     using ibrav=0 with symmetry is DISCOURAGED, use correct ibrav instead

     R & G space division:  proc/nbgrp/npool/nimage =      28
     Subspace diagonalization in iterative solution of the eigenvalue problem:
     a serial algorithm will be used

     Using Slab Decomposition

     bravais-lattice index     =            0
     lattice parameter (alat)  =       9.3373  a.u.
     unit-cell volume          =    1810.6075 (a.u.)^3
     number of atoms/cell      =           24
     number of atomic types    =            3
     number of electrons       =        64.00
     number of Kohn-Sham states=           38
     kinetic-energy cutoff     =      70.0000  Ry
     charge density cutoff     =     280.0000  Ry
     scf convergence threshold =      1.0E-08
     mixing beta               =       0.7000
     number of iterations used =            8  plain     mixing
     energy convergence thresh.=      1.0E-04
     force convergence thresh. =      1.0E-03
     press convergence thresh. =      5.0E-01
     Exchange-correlation= PBE
                           (   1   4   3   4   0   0   0)
     nstep                     =           50

     celldm(1)=   9.337326  celldm(2)=   0.000000  celldm(3)=   0.000000
     celldm(4)=   0.000000  celldm(5)=   0.000000  celldm(6)=   0.000000

     crystal axes: (cart. coord. in units of alat)
               a(1) = (   1.000000   0.000000   0.000000 )
               a(2) = (   0.000000   1.000000   0.000000 )
               a(3) = (   0.000000   0.000000   2.224113 )

     reciprocal axes: (cart. coord. in units 2 pi/alat)
               b(1) = (  1.000000  0.000000  0.000000 )
               b(2) = (  0.000000  1.000000  0.000000 )
               b(3) = (  0.000000  0.000000  0.449617 )

     PseudoPot. # 1 for H  read from file:
     /scratch/antwerpen/209/vsc20922/pseudos/H.pbe-rrkjus_psl.1.0.0.UPF
     MD5 check sum: f52b6d4d1c606e5624b1dc7b2218f220
     Pseudo is Ultrasoft, Zval =  1.0
     Generated using "atomic" code by A. Dal Corso  v.5.1
     Using radial grid of  929 points,  2 beta functions with:
                l(1) =   0
                l(2) =   0
     Q(r) pseudized with 0 coefficients

     PseudoPot. # 2 for Al read from file:
     /scratch/antwerpen/209/vsc20922/pseudos/Al.pbe-n-kjpaw_psl.1.0.0.UPF
     MD5 check sum: cfc449ca30b5f3223ec38ddd88ac046d
     Pseudo is Projector augmented-wave + core cor, Zval =  3.0
     Generated using "atomic" code by A. Dal Corso  v.5.1
     Shape of augmentation charge: PSQ
     Using radial grid of 1135 points,  6 beta functions with:
                l(1) =   0
                l(2) =   0
                l(3) =   1
                l(4) =   1
                l(5) =   2
                l(6) =   2
     Q(r) pseudized with 0 coefficients

     PseudoPot. # 3 for Na read from file:
     /scratch/antwerpen/209/vsc20922/pseudos/na_pbe_v1.5.uspp.F.UPF
     MD5 check sum: 44600605ef58000f06b90626533354dc
     Pseudo is Ultrasoft, Zval =  9.0
     Generated by new atomic code, or converted to UPF format
     Using radial grid of  819 points,  5 beta functions with:
                l(1) =   0
                l(2) =   0
                l(3) =   1
                l(4) =   1
                l(5) =   2
     Q(r) pseudized with  8 coefficients,  rinner =    1.250   1.250   1.250
                                                       1.250   1.250

     atomic species   valence    mass     pseudopotential
        H              1.00     1.00750     H ( 1.00)
        Al             3.00    26.98100     Al( 1.00)
        Na             9.00    22.98900     Na( 1.00)

      4 Sym. Ops. (no inversion) found

   Cartesian axes

     site n.     atom                  positions (alat units)
         1           Al  tau(   1) = (   0.0000000   0.5000000   1.6680845  )
         2           Al  tau(   2) = (   0.0000000   0.0000000   1.1120564  )
         3           Al  tau(   3) = (   0.5000000   0.0000000   0.5560282  )
         4           Al  tau(   4) = (   0.5000000   0.5000000   0.0000000  )
         5           Na  tau(   5) = (   0.5000000   0.0000000   1.6680845  )
         6           Na  tau(   6) = (   0.5000000   0.5000000   1.1120564  )
         7           Na  tau(   7) = (   0.0000000   0.5000000   0.5560282  )
         8           Na  tau(   8) = (   0.0000000   0.0000000   0.0000000  )
         9           H   tau(   9) = (   0.8578140   0.7635132   0.9318537  )
        10           H   tau(  10) = (   0.7635132   0.6421860   1.4878818  )
        11           H   tau(  11) = (   0.2364868   0.3578139   1.4878818  )
        12           H   tau(  12) = (   0.1421861   0.2364868   0.9318537  )
        13           H   tau(  13) = (   0.8578140   0.2635132   1.8482873  )
        14           H   tau(  14) = (   0.7635132   0.1421861   1.2922591  )
        15           H   tau(  15) = (   0.2364868   0.8578140   1.2922591  )
        16           H   tau(  16) = (   0.1421861   0.7364868   1.8482873  )
        17           H   tau(  17) = (   0.3578139   0.2635132   2.0439100  )
        18           H   tau(  18) = (   0.2635132   0.1421861   0.3758255  )
        19           H   tau(  19) = (   0.7364868   0.8578140   0.3758255  )
        20           H   tau(  20) = (   0.6421860   0.7364868   2.0439100  )
        21           H   tau(  21) = (   0.3578139   0.7635132   0.7362309  )
        22           H   tau(  22) = (   0.2635132   0.6421860   0.1802027  )
        23           H   tau(  23) = (   0.7364868   0.3578139   0.1802027  )
        24           H   tau(  24) = (   0.6421860   0.2364868   0.7362309  )

     number of k points=    52  Marzari-Vanderbilt smearing, width (Ry)=  0.0050
                       cart. coord. in units 2pi/alat
        k(    1) = (   0.0000000   0.0000000   0.0000000), wk =   0.0058309
        k(    2) = (   0.0000000   0.0000000   0.0642311), wk =   0.0116618
        k(    3) = (   0.0000000   0.0000000   0.1284621), wk =   0.0116618
        k(    4) = (   0.0000000   0.0000000   0.1926932), wk =   0.0116618
        k(    5) = (   0.0000000   0.1428571   0.0000000), wk =   0.0233236
        k(    6) = (   0.0000000   0.1428571   0.0642311), wk =   0.0466472
        k(    7) = (   0.0000000   0.1428571   0.1284621), wk =   0.0466472
        k(    8) = (   0.0000000   0.1428571   0.1926932), wk =   0.0466472
        k(    9) = (   0.0000000   0.2857143   0.0000000), wk =   0.0233236
        k(   10) = (   0.0000000   0.2857143   0.0642311), wk =   0.0466472
        k(   11) = (   0.0000000   0.2857143   0.1284621), wk =   0.0466472
        k(   12) = (   0.0000000   0.2857143   0.1926932), wk =   0.0466472
        k(   13) = (   0.0000000   0.4285714   0.0000000), wk =   0.0233236
        k(   14) = (   0.0000000   0.4285714   0.0642311), wk =   0.0466472
        k(   15) = (   0.0000000   0.4285714   0.1284621), wk =   0.0466472
        k(   16) = (   0.0000000   0.4285714   0.1926932), wk =   0.0466472
        k(   17) = (   0.1428571   0.1428571   0.0000000), wk =   0.0233236
        k(   18) = (   0.1428571   0.1428571   0.0642311), wk =   0.0466472
        k(   19) = (   0.1428571   0.1428571   0.1284621), wk =   0.0466472
        k(   20) = (   0.1428571   0.1428571   0.1926932), wk =   0.0466472
        k(   21) = (   0.1428571   0.2857143   0.0000000), wk =   0.0233236
        k(   22) = (   0.1428571   0.2857143   0.0642311), wk =   0.0466472
        k(   23) = (   0.1428571   0.2857143   0.1284621), wk =   0.0466472
        k(   24) = (   0.1428571   0.2857143   0.1926932), wk =   0.0466472
        k(   25) = (   0.1428571   0.4285714   0.0000000), wk =   0.0233236
        k(   26) = (   0.1428571   0.4285714   0.0642311), wk =   0.0466472
        k(   27) = (   0.1428571   0.4285714   0.1284621), wk =   0.0466472
        k(   28) = (   0.1428571   0.4285714   0.1926932), wk =   0.0466472
        k(   29) = (   0.2857143   0.2857143   0.0000000), wk =   0.0233236
        k(   30) = (   0.2857143   0.2857143   0.0642311), wk =   0.0466472
        k(   31) = (   0.2857143   0.2857143   0.1284621), wk =   0.0466472
        k(   32) = (   0.2857143   0.2857143   0.1926932), wk =   0.0466472
        k(   33) = (   0.2857143   0.4285714   0.0000000), wk =   0.0233236
        k(   34) = (   0.2857143   0.4285714   0.0642311), wk =   0.0466472
        k(   35) = (   0.2857143   0.4285714   0.1284621), wk =   0.0466472
        k(   36) = (   0.2857143   0.4285714   0.1926932), wk =   0.0466472
        k(   37) = (   0.4285714   0.4285714   0.0000000), wk =   0.0233236
        k(   38) = (   0.4285714   0.4285714   0.0642311), wk =   0.0466472
        k(   39) = (   0.4285714   0.4285714   0.1284621), wk =   0.0466472
        k(   40) = (   0.4285714   0.4285714   0.1926932), wk =   0.0466472
        k(   41) = (   0.2857143   0.1428571   0.0000000), wk =   0.0233236
        k(   42) = (   0.2857143   0.1428571  -0.0642311), wk =   0.0466472
        k(   43) = (   0.2857143   0.1428571  -0.1284621), wk =   0.0466472
        k(   44) = (   0.2857143   0.1428571  -0.1926932), wk =   0.0466472
        k(   45) = (   0.4285714   0.1428571   0.0000000), wk =   0.0233236
        k(   46) = (   0.4285714   0.1428571  -0.0642311), wk =   0.0466472
        k(   47) = (   0.4285714   0.1428571  -0.1284621), wk =   0.0466472
        k(   48) = (   0.4285714   0.1428571  -0.1926932), wk =   0.0466472
        k(   49) = (   0.4285714   0.2857143   0.0000000), wk =   0.0233236
        k(   50) = (   0.4285714   0.2857143  -0.0642311), wk =   0.0466472
        k(   51) = (   0.4285714   0.2857143  -0.1284621), wk =   0.0466472
        k(   52) = (   0.4285714   0.2857143  -0.1926932), wk =   0.0466472

     Initial potential from superposition of free atoms

     starting charge      63.9655, renormalised to      64.0000
     Starting wfcs are   52 randomized atomic wfcs
     Checking if some PAW data can be deallocated...

     Self-consistent Calculation

     iteration #  1     ecut=    70.00 Ry     beta= 0.70
     Davidson diagonalization with overlap
     ethr =  1.00E-02,  avg # of iterations =  3.9

     total energy              =    -558.21904505 Ry
     estimated scf accuracy    <       1.09340976 Ry

[...]

     iteration #  3     ecut=    70.00 Ry     beta= 0.70
     Davidson diagonalization with overlap
     c_bands:  1 eigenvalues not converged
     ethr =  3.45E-05,  avg # of iterations = 10.6

[...]

[...]
H             0.8582845728        0.2652625880        0.8308390376
H             0.7652625964        0.1417154269        0.5808390460
H             0.2347374036        0.8582845731        0.5808390460
H             0.1417154272        0.7347374120        0.8308390376
H             0.3582845878        0.2652625896        0.9191609390
H             0.2652625880        0.1417154272        0.1691609624
H             0.7347374120        0.8582845728        0.1691609624
H             0.6417154122        0.7347374104        0.9191609390
H             0.3582845883        0.7652625993        0.3308390694
H             0.2652625896        0.6417154122        0.0808390610
H             0.7347374104        0.3582845878        0.0808390610
H             0.6417154117        0.2347374007        0.3308390694
End final coordinates

     Writing config-only to output data dir ./NaAlH4.save/

     Final scf calculation at the relaxed structure.
     The G-vectors are recalculated for the final unit cell
     Results may differ from those at the preceding step.

     Using Slab Decomposition

     bravais-lattice index     =            0
     lattice parameter (alat)  =       9.3373  a.u.
     unit-cell volume          =    1886.9254 (a.u.)^3
     number of atoms/cell      =           24
     number of atomic types    =            3
     number of electrons       =        64.00
     number of Kohn-Sham states=           38
     kinetic-energy cutoff     =      70.0000  Ry
     charge density cutoff     =     280.0000  Ry
     scf convergence threshold =      1.0E-10
     mixing beta               =       0.7000
     number of iterations used =            8  plain     mixing
     press convergence thresh. =      5.0E-01
     Exchange-correlation= PBE
                           (   1   4   3   4   0   0   0)

     celldm(1)=   9.337326  celldm(2)=   0.000000  celldm(3)=   0.000000
     celldm(4)=   0.000000  celldm(5)=   0.000000  celldm(6)=   0.000000

     crystal axes: (cart. coord. in units of alat)
               a(1) = (   1.014076  -0.000000   0.000000 )
               a(2) = (   0.000000   1.014076   0.000000 )
               a(3) = (   0.000000   0.000000   2.253958 )

     reciprocal axes: (cart. coord. in units 2 pi/alat)
               b(1) = (  0.986119 -0.000000  0.000000 )
               b(2) = (  0.000000  0.986119  0.000000 )
               b(3) = (  0.000000  0.000000  0.443664 )

     PseudoPot. # 1 for H  read from file:
     /scratch/antwerpen/209/vsc20922/pseudos/H.pbe-rrkjus_psl.1.0.0.UPF
     MD5 check sum: f52b6d4d1c606e5624b1dc7b2218f220
     Pseudo is Ultrasoft, Zval =  1.0
     Generated using "atomic" code by A. Dal Corso  v.5.1
     Using radial grid of  929 points,  2 beta functions with:
                l(1) =   0
                l(2) =   0
     Q(r) pseudized with 0 coefficients

     PseudoPot. # 2 for Al read from file:
     /scratch/antwerpen/209/vsc20922/pseudos/Al.pbe-n-kjpaw_psl.1.0.0.UPF
     MD5 check sum: cfc449ca30b5f3223ec38ddd88ac046d
     Pseudo is Projector augmented-wave + core cor, Zval =  3.0
     Generated using "atomic" code by A. Dal Corso  v.5.1
     Shape of augmentation charge: PSQ
     Using radial grid of 1135 points,  6 beta functions with:
                l(1) =   0
                l(2) =   0
                l(3) =   1
                l(4) =   1
                l(5) =   2
                l(6) =   2
     Q(r) pseudized with 0 coefficients

     PseudoPot. # 3 for Na read from file:
     /scratch/antwerpen/209/vsc20922/pseudos/na_pbe_v1.5.uspp.F.UPF
     MD5 check sum: 44600605ef58000f06b90626533354dc
     Pseudo is Ultrasoft, Zval =  9.0
     Generated by new atomic code, or converted to UPF format
     Using radial grid of  819 points,  5 beta functions with:
                l(1) =   0
                l(2) =   0
                l(3) =   1
                l(4) =   1
                l(5) =   2
     Q(r) pseudized with  8 coefficients,  rinner =    1.250   1.250   1.250
                                                       1.250   1.250

     atomic species   valence    mass     pseudopotential
        H              1.00     1.00750     H ( 1.00)
        Al             3.00    26.98100     Al( 1.00)
        Na             9.00    22.98900     Na( 1.00)

      4 Sym. Ops. (no inversion) found

   Cartesian axes

     site n.     atom                  positions (alat units)
         1           Al  tau(   1) = (   0.0000000   0.5070382   1.6904688  )
         2           Al  tau(   2) = (   0.0000000   0.0000000   1.1269792  )
         3           Al  tau(   3) = (   0.5070382  -0.0000000   0.5634896  )
         4           Al  tau(   4) = (   0.5070382   0.5070382   0.0000000  )
         5           Na  tau(   5) = (   0.5070382  -0.0000000   1.6904686  )
         6           Na  tau(   6) = (   0.5070382   0.5070382   1.1269792  )
         7           Na  tau(   7) = (   0.0000000   0.5070382   0.5634898  )
         8           Na  tau(   8) = (   0.0000000   0.0000000   0.0000000  )
         9           H   tau(   9) = (   0.8703661   0.7760347   0.9447714  )
        10           H   tau(  10) = (   0.7760347   0.6507484   1.5082609  )
        11           H   tau(  11) = (   0.2380416   0.3633279   1.5082609  )
        12           H   tau(  12) = (   0.1437103   0.2380416   0.9447714  )
        13           H   tau(  13) = (   0.8703661   0.2689965   1.8726767  )
        14           H   tau(  14) = (   0.7760347   0.1437103   1.3091871  )
        15           H   tau(  15) = (   0.2380416   0.8703661   1.3091871  )
        16           H   tau(  16) = (   0.1437103   0.7450798   1.8726767  )
        17           H   tau(  17) = (   0.3633279   0.2689965   2.0717506  )
        18           H   tau(  18) = (   0.2689965   0.1437103   0.3812818  )
        19           H   tau(  19) = (   0.7450798   0.8703661   0.3812818  )
        20           H   tau(  20) = (   0.6507484   0.7450798   2.0717506  )
        21           H   tau(  21) = (   0.3633279   0.7760347   0.7456975  )
        22           H   tau(  22) = (   0.2689965   0.6507484   0.1822079  )
        23           H   tau(  23) = (   0.7450798   0.3633279   0.1822079  )
        24           H   tau(  24) = (   0.6507484   0.2380416   0.7456975  )

     number of k points=    52  Marzari-Vanderbilt smearing, width (Ry)=  0.0050
                       cart. coord. in units 2pi/alat
        k(    1) = (   0.0000000   0.0000000   0.0000000), wk =   0.0058309
        k(    2) = (   0.0000000   0.0000000   0.0633806), wk =   0.0116618
        k(    3) = (   0.0000000   0.0000000   0.1267611), wk =   0.0116618
        k(    4) = (   0.0000000   0.0000000   0.1901417), wk =   0.0116618
        k(    5) = (   0.0000000   0.1408742   0.0000000), wk =   0.0233236
        k(    6) = (   0.0000000   0.1408742   0.0633806), wk =   0.0466472
        k(    7) = (   0.0000000   0.1408742   0.1267611), wk =   0.0466472
        k(    8) = (   0.0000000   0.1408742   0.1901417), wk =   0.0466472
        k(    9) = (   0.0000000   0.2817483   0.0000000), wk =   0.0233236
        k(   10) = (   0.0000000   0.2817483   0.0633806), wk =   0.0466472
        k(   11) = (   0.0000000   0.2817483   0.1267611), wk =   0.0466472
        k(   12) = (   0.0000000   0.2817483   0.1901417), wk =   0.0466472
        k(   13) = (   0.0000000   0.4226225   0.0000000), wk =   0.0233236
        k(   14) = (   0.0000000   0.4226225   0.0633806), wk =   0.0466472
        k(   15) = (   0.0000000   0.4226225   0.1267611), wk =   0.0466472
        k(   16) = (   0.0000000   0.4226225   0.1901417), wk =   0.0466472
        k(   17) = (   0.1408742   0.1408742   0.0000000), wk =   0.0233236
        k(   18) = (   0.1408742   0.1408742   0.0633806), wk =   0.0466472
        k(   19) = (   0.1408742   0.1408742   0.1267611), wk =   0.0466472
        k(   20) = (   0.1408742   0.1408742   0.1901417), wk =   0.0466472
        k(   21) = (   0.1408742   0.2817483   0.0000000), wk =   0.0233236
        k(   22) = (   0.1408742   0.2817483   0.0633806), wk =   0.0466472
        k(   23) = (   0.1408742   0.2817483   0.1267611), wk =   0.0466472
        k(   24) = (   0.1408742   0.2817483   0.1901417), wk =   0.0466472
        k(   25) = (   0.1408742   0.4226225   0.0000000), wk =   0.0233236
        k(   26) = (   0.1408742   0.4226225   0.0633806), wk =   0.0466472
        k(   27) = (   0.1408742   0.4226225   0.1267611), wk =   0.0466472
        k(   28) = (   0.1408742   0.4226225   0.1901417), wk =   0.0466472
        k(   29) = (   0.2817483   0.2817483   0.0000000), wk =   0.0233236
        k(   30) = (   0.2817483   0.2817483   0.0633806), wk =   0.0466472
        k(   31) = (   0.2817483   0.2817483   0.1267611), wk =   0.0466472
        k(   32) = (   0.2817483   0.2817483   0.1901417), wk =   0.0466472
        k(   33) = (   0.2817483   0.4226225   0.0000000), wk =   0.0233236
        k(   34) = (   0.2817483   0.4226225   0.0633806), wk =   0.0466472
        k(   35) = (   0.2817483   0.4226225   0.1267611), wk =   0.0466472
        k(   36) = (   0.2817483   0.4226225   0.1901417), wk =   0.0466472
        k(   37) = (   0.4226225   0.4226225   0.0000000), wk =   0.0233236
        k(   38) = (   0.4226225   0.4226225   0.0633806), wk =   0.0466472
        k(   39) = (   0.4226225   0.4226225   0.1267611), wk =   0.0466472
        k(   40) = (   0.4226225   0.4226225   0.1901417), wk =   0.0466472
        k(   41) = (   0.2817483   0.1408742   0.0000000), wk =   0.0233236
        k(   42) = (   0.2817483   0.1408742  -0.0633806), wk =   0.0466472
        k(   43) = (   0.2817483   0.1408742  -0.1267611), wk =   0.0466472
        k(   44) = (   0.2817483   0.1408742  -0.1901417), wk =   0.0466472
        k(   45) = (   0.4226225   0.1408742   0.0000000), wk =   0.0233236
        k(   46) = (   0.4226225   0.1408742  -0.0633806), wk =   0.0466472
        k(   47) = (   0.4226225   0.1408742  -0.1267611), wk =   0.0466472
        k(   48) = (   0.4226225   0.1408742  -0.1901417), wk =   0.0466472
        k(   49) = (   0.4226225   0.2817483   0.0000000), wk =   0.0233236
        k(   50) = (   0.4226225   0.2817483  -0.0633806), wk =   0.0466472
        k(   51) = (   0.4226225   0.2817483  -0.1267611), wk =   0.0466472
        k(   52) = (   0.4226225   0.2817483  -0.1901417), wk =   0.0466472

     Initial potential from superposition of free atoms

     starting charge      63.9655, renormalised to      64.0000
     Starting wfcs are   52 randomized atomic wfcs
     Checking if some PAW data can be deallocated...

     Self-consistent Calculation

     iteration #  1     ecut=    70.00 Ry     beta= 0.70
     Davidson diagonalization with overlap
     c_bands:  3 eigenvalues not converged
     c_bands:  2 eigenvalues not converged
     c_bands:  2 eigenvalues not converged
     c_bands:  4 eigenvalues not converged
     c_bands:  4 eigenvalues not converged
     c_bands:  4 eigenvalues not converged
     c_bands:  2 eigenvalues not converged
     c_bands:  4 eigenvalues not converged
     c_bands:  4 eigenvalues not converged
     c_bands:  5 eigenvalues not converged
     c_bands:  5 eigenvalues not converged
     c_bands:  2 eigenvalues not converged
     c_bands:  1 eigenvalues not converged
     c_bands:  5 eigenvalues not converged
     c_bands:  5 eigenvalues not converged
     c_bands:  4 eigenvalues not converged
     c_bands:  5 eigenvalues not converged
     c_bands:  3 eigenvalues not converged
     c_bands:  3 eigenvalues not converged
     c_bands:  3 eigenvalues not converged
     c_bands:  4 eigenvalues not converged
     c_bands:  4 eigenvalues not converged
     c_bands:  3 eigenvalues not converged
     c_bands:  1 eigenvalues not converged
     c_bands:  4 eigenvalues not converged
     c_bands:  4 eigenvalues not converged
     c_bands:  4 eigenvalues not converged
     c_bands:  1 eigenvalues not converged
     c_bands:  2 eigenvalues not converged
     c_bands:  3 eigenvalues not converged
     c_bands:  4 eigenvalues not converged
     c_bands:  2 eigenvalues not converged
     c_bands:  3 eigenvalues not converged
     c_bands:  3 eigenvalues not converged
     c_bands:  2 eigenvalues not converged
     c_bands:  2 eigenvalues not converged
     c_bands:  2 eigenvalues not converged
     c_bands:  2 eigenvalues not converged
     c_bands:  2 eigenvalues not converged
     c_bands:  2 eigenvalues not converged
     c_bands:  4 eigenvalues not converged
     c_bands:  5 eigenvalues not converged
     c_bands:  3 eigenvalues not converged
     c_bands:  4 eigenvalues not converged
     c_bands:  4 eigenvalues not converged
     c_bands:  3 eigenvalues not converged
     c_bands:  3 eigenvalues not converged
     c_bands:  3 eigenvalues not converged
     c_bands:  3 eigenvalues not converged
     c_bands:  2 eigenvalues not converged
     ethr =  1.00E-06,  avg # of iterations = 20.3

[...]

     total energy              =    -558.29972424 Ry
     estimated scf accuracy    <          2.9E-09 Ry

     iteration # 11     ecut=    70.00 Ry     beta= 0.70
     Davidson diagonalization with overlap
     ethr =  4.53E-12,  avg # of iterations =  2.1

     End of self-consistent calculation

[...]

          k = 0.4226 0.2817-0.1901 ( 18655 PWs)   bands (ev):

   -50.1362 -50.1362 -50.1358 -50.1358 -22.0642 -22.0639 -22.0629 -22.0627
   -22.0585 -22.0585 -22.0549 -22.0549 -22.0498 -22.0496 -22.0477 -22.0473
    -5.1802  -5.1163  -4.3301  -4.2439  -2.6268  -2.5557  -2.0931  -2.0020
    -1.9153  -1.8478  -1.3930  -1.2703  -0.9447  -0.8826  -0.6117  -0.5889
     4.9520   5.1116   5.2837   5.4724   5.7843   5.9774

     the Fermi energy is     3.5709 ev

!    total energy              =    -558.29972424 Ry
     estimated scf accuracy    <          2.9E-11 Ry
     smearing contrib. (-TS)   =      -0.00000000 Ry
     internal energy E=F+TS    =    -558.29972424 Ry

     The total energy is F=E-TS. E is the sum of the following terms:
     one-electron contribution =    -349.27117791 Ry
     hartree contribution      =     187.15911672 Ry
     xc contribution           =     -79.05649461 Ry
     ewald contribution        =    -178.37824532 Ry
     one-center paw contrib.   =    -138.75292311 Ry

     convergence has been achieved in  11 iterations

     Forces acting on atoms (cartesian axes, Ry/au):

     atom    1 type  2   force =     0.00000000    0.00000000   -0.00000031
     atom    2 type  2   force =     0.00000000    0.00000000    0.00000000
     atom    3 type  2   force =     0.00000000    0.00000000    0.00000031
     atom    4 type  2   force =     0.00000000    0.00000000    0.00000000
     atom    5 type  3   force =     0.00000000    0.00000000   -0.00000083
     atom    6 type  3   force =     0.00000000    0.00000000    0.00000000
     atom    7 type  3   force =     0.00000000    0.00000000    0.00000083
     atom    8 type  3   force =     0.00000000    0.00000000    0.00000000
     atom    9 type  1   force =     0.00009852    0.00003935   -0.00000149
     atom   10 type  1   force =     0.00003937   -0.00009855   -0.00000151
     atom   11 type  1   force =    -0.00003937    0.00009855   -0.00000151
     atom   12 type  1   force =    -0.00009852   -0.00003935   -0.00000149
     atom   13 type  1   force =     0.00009853    0.00003938    0.00000149
     atom   14 type  1   force =     0.00003935   -0.00009852    0.00000149
     atom   15 type  1   force =    -0.00003935    0.00009852    0.00000149
     atom   16 type  1   force =    -0.00009853   -0.00003938    0.00000149
     atom   17 type  1   force =     0.00009856    0.00003941   -0.00000149
     atom   18 type  1   force =     0.00003938   -0.00009853   -0.00000149
     atom   19 type  1   force =    -0.00003938    0.00009853   -0.00000149
     atom   20 type  1   force =    -0.00009856   -0.00003941   -0.00000149
     atom   21 type  1   force =     0.00009855    0.00003937    0.00000151
     atom   22 type  1   force =     0.00003941   -0.00009856    0.00000149
     atom   23 type  1   force =    -0.00003941    0.00009856    0.00000149
     atom   24 type  1   force =    -0.00009855   -0.00003937    0.00000151

     Total force =     0.000425     Total SCF correction =     0.000004

     Computing stress (Cartesian axis) and pressure

          total   stress  (Ry/bohr**3)                   (kbar)     P=       -0.17
  -0.00000131   0.00000000   0.00000000           -0.19        0.00        0.00
   0.00000000  -0.00000131   0.00000000            0.00       -0.19        0.00
   0.00000000   0.00000000  -0.00000087            0.00        0.00       -0.13

     Writing all to output data dir ./NaAlH4.save/

     General routines

     Parallel routines

   This run was terminated on:  16:36:23   3Dec2023

   JOB DONE.