     Program PWSCF v.6.8 starts on 30Nov2023 at 16:20:23

     R & G space division:  proc/nbgrp/npool/nimage =      12

     Reading input from input2.in

     Current dimensions of program PWSCF are:
     Max number of different atomic species (ntypx) = 10
     Max number of k-points (npk) =  40000
     Max angular momentum in pseudopotentials (lmaxx) =  4
     file Al.pbe-n-kjpaw_psl.1.0.0.UPF: wavefunction(s)  3S 3P renormalized

     IMPORTANT: XC functional enforced from input :
     Exchange-correlation= PBE
                           (   1   4   3   4   0   0   0)
     Any further DFT definition will be discarded
     Please, verify this is what you really want

     Message from routine setup:
     using ibrav=0 with symmetry is DISCOURAGED, use correct ibrav instead

     Using Slab Decomposition

     bravais-lattice index     =            0
     lattice parameter (alat)  =      10.0031  a.u.
     unit-cell volume          =    1494.3894 (a.u.)^3
     number of atoms/cell      =           20
     number of atomic types    =            3
     number of electrons       =        72.00
     number of Kohn-Sham states=           43
     kinetic-energy cutoff     =      60.0000  Ry
     charge density cutoff     =     240.0000  Ry
     scf convergence threshold =      1.0E-08
     mixing beta               =       0.7000
     number of iterations used =            8  plain     mixing
     energy convergence thresh.=      1.0E-04
     force convergence thresh. =      1.0E-03
     press convergence thresh. =      5.0E-01
     Exchange-correlation= PBE
                           (   1   4   3   4   0   0   0)
     nstep                     =           50

     celldm(1)=  10.003076  celldm(2)=   0.000000  celldm(3)=   0.000000
     celldm(4)=   0.000000  celldm(5)=   0.000000  celldm(6)=   0.000000

     crystal axes: (cart. coord. in units of alat)
               a(1) = (   1.000000   0.000000   0.000000 )
               a(2) = (   0.000000   1.037180   0.000000 )
               a(3) = (  -1.000435   0.000000   1.439490 )

     reciprocal axes: (cart. coord. in units 2 pi/alat)
               b(1) = (  1.000000 -0.000000  0.694992 )
               b(2) = (  0.000000  0.964153 -0.000000 )
               b(3) = (  0.000000  0.000000  0.694690 )

     PseudoPot. # 1 for Al read from file:
     ./Al.pbe-n-kjpaw_psl.1.0.0.UPF
     MD5 check sum: cfc449ca30b5f3223ec38ddd88ac046d
     Pseudo is Projector augmented-wave + core cor, Zval =  3.0
     Generated using "atomic" code by A. Dal Corso  v.5.1
     Shape of augmentation charge: PSQ
     Using radial grid of 1135 points,  6 beta functions with:
                l(1) =   0
                l(2) =   0
                l(3) =   1
                l(4) =   1
                l(5) =   2
                l(6) =   2
     Q(r) pseudized with 0 coefficients

     PseudoPot. # 2 for H  read from file:
     ./H.pbe-rrkjus_psl.1.0.0.UPF
     MD5 check sum: f52b6d4d1c606e5624b1dc7b2218f220
     Pseudo is Ultrasoft, Zval =  1.0
     Generated using "atomic" code by A. Dal Corso  v.5.1
     Using radial grid of  929 points,  2 beta functions with:
                l(1) =   0
                l(2) =   0
     Q(r) pseudized with 0 coefficients

     PseudoPot. # 3 for Rb read from file:
     ./Rb_ONCV_PBE-1.0.oncvpsp.upf
     MD5 check sum: 55a5172d6bfbce6759a58e35d43f6aa9
     Pseudo is Norm-conserving, Zval =  9.0
     Generated using ONCVPSP code by D. R. Hamann
     Using radial grid of 2308 points,  6 beta functions with:
                l(1) =   0
                l(2) =   0
                l(3) =   1
                l(4) =   1
                l(5) =   2
                l(6) =   2

     atomic species   valence    mass     pseudopotential
        Al             3.00    26.98100     Al( 1.00)
        H              1.00     1.00750     H ( 1.00)
        Rb             9.00    85.46780     Rb( 1.00)

      4 Sym. Ops., with inversion, found ( 2 have fractional translation)

   Cartesian axes

     site n.     atom                  positions (alat units)
         1           Rb  tau(   1) = (  -0.0005709   0.5200097   0.3565227  )
         2           Rb  tau(   2) = (   0.0001362   0.5171706   1.0829677  )
         3           Rb  tau(   3) = (   0.5003535   0.0014196   0.3632225  )
         4           Rb  tau(   4) = (  -0.5007882   1.0357607   1.0762679  )
         5           Rb  tau(   5) = (  -0.0002173   0.0000000   0.7197452  )
         6           Rb  tau(   6) = (   0.5000000   0.5185901   0.0000000  )
         7           Al  tau(   7) = (   0.0000000   0.0000000   0.0000000  )
         8           Al  tau(   8) = (  -0.5002173   0.5185901   0.7197452  )
         9           H   tau(   9) = (  -0.4904554   0.5062158   1.0254618  )
        10           H   tau(  10) = (   0.4900207   0.5309644   0.4140286  )
        11           H   tau(  11) = (  -0.0101966  -0.0123743   1.1337739  )
        12           H   tau(  12) = (   0.0097620   1.0495546   0.3057166  )
        13           H   tau(  13) = (  -0.2848022   0.3015063   0.7035743  )
        14           H   tau(  14) = (   0.2843675   0.7356739   0.7359161  )
        15           H   tau(  15) = (  -0.2158498   0.8200964   1.4556613  )
        16           H   tau(  16) = (   0.2154152   0.2170838  -0.0161709  )
        17           H   tau(  17) = (  -0.2792648   0.7312909   0.7210319  )
        18           H   tau(  18) = (   0.2788302   0.3058893   0.7184585  )
        19           H   tau(  19) = (  -0.2213872   0.2127008   1.4382038  )
        20           H   tau(  20) = (   0.2209525   0.8244795   0.0012867  )

     number of k points=    39  Marzari-Vanderbilt smearing, width (Ry)=  0.0050
                       cart. coord. in units 2pi/alat
        k(    1) = (   0.0000000   0.0000000   0.0000000), wk =   0.0160000
        k(    2) = (   0.0000000   0.0000000   0.1389381), wk =   0.0320000
        k(    3) = (   0.0000000   0.0000000   0.2778761), wk =   0.0320000
        k(    4) = (   0.0000000   0.1928305   0.0000000), wk =   0.0320000
        k(    5) = (   0.0000000   0.1928305   0.1389381), wk =   0.0640000
        k(    6) = (   0.0000000   0.1928305   0.2778761), wk =   0.0640000
        k(    7) = (   0.0000000   0.3856610   0.0000000), wk =   0.0320000
        k(    8) = (   0.0000000   0.3856610   0.1389381), wk =   0.0640000
        k(    9) = (   0.0000000   0.3856610   0.2778761), wk =   0.0640000
        k(   10) = (   0.2000000   0.0000000   0.1389984), wk =   0.0320000
        k(   11) = (   0.2000000   0.0000000   0.2779365), wk =   0.0320000
        k(   12) = (   0.2000000   0.0000000   0.4168746), wk =   0.0320000
        k(   13) = (   0.2000000   0.0000000  -0.1388777), wk =   0.0320000
        k(   14) = (   0.2000000   0.0000000   0.0000604), wk =   0.0320000
        k(   15) = (   0.2000000   0.1928305   0.1389984), wk =   0.0640000
        k(   16) = (   0.2000000   0.1928305   0.2779365), wk =   0.0640000
        k(   17) = (   0.2000000   0.1928305   0.4168746), wk =   0.0640000
        k(   18) = (   0.2000000   0.1928305  -0.1388777), wk =   0.0640000
        k(   19) = (   0.2000000   0.1928305   0.0000604), wk =   0.0640000
        k(   20) = (   0.2000000   0.3856610   0.1389984), wk =   0.0640000
        k(   21) = (   0.2000000   0.3856610   0.2779365), wk =   0.0640000
        k(   22) = (   0.2000000   0.3856610   0.4168746), wk =   0.0640000
        k(   23) = (   0.2000000   0.3856610  -0.1388777), wk =   0.0640000
        k(   24) = (   0.2000000   0.3856610   0.0000604), wk =   0.0640000
        k(   25) = (   0.4000000   0.0000000   0.2779969), wk =   0.0320000
        k(   26) = (   0.4000000   0.0000000   0.4169349), wk =   0.0320000
        k(   27) = (   0.4000000   0.0000000   0.5558730), wk =   0.0320000
        k(   28) = (   0.4000000   0.0000000   0.0001208), wk =   0.0320000
        k(   29) = (   0.4000000   0.0000000   0.1390588), wk =   0.0320000
        k(   30) = (   0.4000000   0.1928305   0.2779969), wk =   0.0640000
        k(   31) = (   0.4000000   0.1928305   0.4169349), wk =   0.0640000
        k(   32) = (   0.4000000   0.1928305   0.5558730), wk =   0.0640000
        k(   33) = (   0.4000000   0.1928305   0.0001208), wk =   0.0640000
        k(   34) = (   0.4000000   0.1928305   0.1390588), wk =   0.0640000
        k(   35) = (   0.4000000   0.3856610   0.2779969), wk =   0.0640000
        k(   36) = (   0.4000000   0.3856610   0.4169349), wk =   0.0640000
        k(   37) = (   0.4000000   0.3856610   0.5558730), wk =   0.0640000
        k(   38) = (   0.4000000   0.3856610   0.0001208), wk =   0.0640000
        k(   39) = (   0.4000000   0.3856610   0.1390588), wk =   0.0640000

     Initial potential from superposition of free atoms

     starting charge   71.84671, renormalised to   72.00000
     Starting wfcs are   50 randomized atomic wfcs
     Checking if some PAW data can be deallocated...

     Self-consistent Calculation

     iteration #  1     ecut=    60.00 Ry     beta= 0.70
     Davidson diagonalization with overlap
     ethr =  1.00E-02,  avg # of iterations =  7.4

     total energy              =    -385.95546182 Ry
     estimated scf accuracy    <       1.69844684 Ry

[...]

     iteration #  5     ecut=    60.00 Ry     beta= 0.70
     Davidson diagonalization with overlap
     c_bands:  2 eigenvalues not converged
     c_bands:  1 eigenvalues not converged
     ethr =  1.72E-07,  avg # of iterations =  3.9

[...]

     End of self-consistent calculation

          k = 0.0000 0.0000 0.0000 ( 11707 PWs)   bands (ev):

   -19.3420 -19.1349 -19.0837 -19.0271 -18.7248 -18.5625  -4.6129  -4.5527
    -4.1699  -3.8737  -3.7756  -3.6793  -3.6544  -3.6498  -3.6478  -3.4094
    -3.0816  -3.0253  -2.9583  -2.7828  -2.7191  -2.6527  -2.4468  -2.3841
     0.1345   1.0577   4.3757   4.5860   4.5922   4.6106   5.1374   5.2341
     5.4433   5.4486   5.8957   6.1049   9.7336  11.7741  11.8633  12.3636
    12.4126  12.8203  13.0199

[...]

     the Fermi energy is     8.4310 ev

!    total energy              =    -386.32783982 Ry
     estimated scf accuracy    <          2.7E-10 Ry
     smearing contrib. (-TS)   =       0.00000000 Ry
     internal energy E=F+TS    =    -386.32783982 Ry

     The total energy is F=E-TS. E is the sum of the following terms:
     one-electron contribution =     -31.92061771 Ry
     hartree contribution      =      45.48395945 Ry
     xc contribution           =     -60.55606938 Ry
     ewald contribution        =    -269.91930572 Ry
     one-center paw contrib.   =     -69.41580646 Ry

     convergence has been achieved in   9 iterations

     Forces acting on atoms (cartesian axes, Ry/au):

     atom    1 type  3   force =     0.00002135    0.00077145    0.00018135
     atom    2 type  3   force =    -0.00002135   -0.00077145   -0.00018135
     atom    3 type  3   force =    -0.00002135    0.00077145   -0.00018135
     atom    4 type  3   force =     0.00002135   -0.00077145    0.00018135
     atom    5 type  3   force =    -0.00000000   -0.00000000    0.00000000
     atom    6 type  3   force =     0.00000000   -0.00000000    0.00000000
[...]
     extrapolated charge   80.40858, renormalised to   72.00000

[...]

          k =-0.0000 0.0000 0.1333 ( 11735 PWs)   bands (ev):

[...]

     Energy error            =      2.5E-01 Ry
     Gradient error          =      1.1E-02 Ry/Bohr
     Cell gradient error     =      1.4E+02 kbar

[...]

     enthalpy           old  =    -386.3278398183 Ry
     enthalpy           new  =    -386.5820458642 Ry

     CASE: enthalpy          _new < enthalpy          _old

[...]

     number of scf cycles    =  13
     number of bfgs steps    =  12

     enthalpy           old  =    -386.8303311283 Ry
     enthalpy           new  =    -386.8304358969 Ry

     CASE: enthalpy          _new < enthalpy          _old

     new trust radius        =       0.0140344508 bohr
     new conv_thr            =            1.0E-10 Ry

     new unit-cell volume =   2369.63381 a.u.^3 (   351.14350 Ang^3 )
     density =      2.73739 g/cm^3

[...]

ATOMIC_POSITIONS (crystal)
Rb            0.2526842170        0.5004811228        0.2532356512
Rb            0.7473157830        0.4995188772        0.7467643488
Rb            0.7473157830        0.0004811228        0.2467643488
Rb            0.2526842170        0.9995188772        0.7532356512
Rb            0.5000000000       -0.0000000000        0.5000000000
Rb            0.5000000000        0.5000000000        0.0000000000
Al           -0.0000000000       -0.0000000000        0.0000000000
Al           -0.0000000000        0.5000000000        0.5000000000
H             0.2101535520        0.4888777117        0.7001926036
H             0.7898464480        0.5111222883        0.2998073964
H             0.7898464480       -0.0111222883        0.7998073964
H             0.2101535520        1.0111222883        0.2001926036
H             0.1886415759        0.2989973179        0.4893353982
H             0.8113584241        0.7010026821        0.5106646018
H             0.8113584241        0.7989973179        1.0106646018
H             0.1886415759        0.2010026821       -0.0106646018
H             0.2046036116        0.6963790676        0.5002047555
H             0.7953963884        0.3036209324        0.4997952445
H             0.7953963884        0.1963790676        0.9997952445
H             0.2046036116        0.8036209324        0.0002047555

     Writing output data file ./Rb3AlH6.save/
     NEW-OLD atomic charge density approx. for the potential
     extrapolated charge   72.18640, renormalised to   72.00000

[...]

     Energy error            =      2.6E-05 Ry
     Gradient error          =      4.2E-04 Ry/Bohr
     Cell gradient error     =      4.2E-01 kbar

     bfgs converged in  14 scf cycles and  13 bfgs steps
     (criteria: energy <  1.0E-04 Ry, force <  1.0E-03Ry/Bohr, cell <  5.0E-01kbar)

     End of BFGS Geometry Optimization

     Final enthalpy           =    -386.8304616454 Ry

     File ./Rb3AlH6.bfgs deleted, as requested
Begin final coordinates
     new unit-cell volume =   2369.63381 a.u.^3 (   351.14350 Ang^3 )
     density =      2.73739 g/cm^3

CELL_PARAMETERS (alat= 10.00307627)
   1.180324017   0.000000000   0.000791485
   0.000000000   1.194603459   0.000000000
  -1.179701539   0.000000000   1.678227447

ATOMIC_POSITIONS (crystal)
Rb            0.2526842170        0.5004811228        0.2532356512
Rb            0.7473157830        0.4995188772        0.7467643488
Rb            0.7473157830        0.0004811228        0.2467643488
Rb            0.2526842170        0.9995188772        0.7532356512
Rb            0.5000000000       -0.0000000000        0.5000000000
Rb            0.5000000000        0.5000000000        0.0000000000
Al           -0.0000000000       -0.0000000000        0.0000000000
Al           -0.0000000000        0.5000000000        0.5000000000
H             0.2101535520        0.4888777117        0.7001926036
H             0.7898464480        0.5111222883        0.2998073964
H             0.7898464480       -0.0111222883        0.7998073964
H             0.2101535520        1.0111222883        0.2001926036
H             0.1886415759        0.2989973179        0.4893353982
H             0.8113584241        0.7010026821        0.5106646018
H             0.8113584241        0.7989973179        1.0106646018
H             0.1886415759        0.2010026821       -0.0106646018
H             0.2046036116        0.6963790676        0.5002047555
H             0.7953963884        0.3036209324        0.4997952445
H             0.7953963884        0.1963790676        0.9997952445
H             0.2046036116        0.8036209324        0.0002047555
End final coordinates

     Writing output data file ./Rb3AlH6.save/

     Final scf calculation at the relaxed structure.
     The G-vectors are recalculated for the final unit cell
     Results may differ from those at the preceding step.

     Using Slab Decomposition

     bravais-lattice index     =            0
     lattice parameter (alat)  =      10.0031  a.u.
     unit-cell volume          =    2369.6338 (a.u.)^3
     number of atoms/cell      =           20
     number of atomic types    =            3
     number of electrons       =        72.00
     number of Kohn-Sham states=           43
     kinetic-energy cutoff     =      60.0000  Ry
     charge density cutoff     =     240.0000  Ry
     scf convergence threshold =      1.0E-10
     mixing beta               =       0.7000
     number of iterations used =            8  plain     mixing
     press convergence thresh. =      5.0E-01
     Exchange-correlation= PBE
                           (   1   4   3   4   0   0   0)

     celldm(1)=  10.003076  celldm(2)=   0.000000  celldm(3)=   0.000000
     celldm(4)=   0.000000  celldm(5)=   0.000000  celldm(6)=   0.000000

     crystal axes: (cart. coord. in units of alat)
               a(1) = (   1.180324   0.000000   0.000791 )
               a(2) = (   0.000000   1.194603   0.000000 )
               a(3) = (  -1.179702   0.000000   1.678227 )

     reciprocal axes: (cart. coord. in units 2 pi/alat)
               b(1) = (  0.846826 -0.000000  0.595272 )
               b(2) = (  0.000000  0.837098 -0.000000 )
               b(3) = ( -0.000399  0.000000  0.595586 )

     PseudoPot. # 1 for Al read from file:
     ./Al.pbe-n-kjpaw_psl.1.0.0.UPF
     MD5 check sum: cfc449ca30b5f3223ec38ddd88ac046d
     Pseudo is Projector augmented-wave + core cor, Zval =  3.0
     Generated using "atomic" code by A. Dal Corso  v.5.1
     Shape of augmentation charge: PSQ
     Using radial grid of 1135 points,  6 beta functions with:
                l(1) =   0
                l(2) =   0
                l(3) =   1
                l(4) =   1
                l(5) =   2
                l(6) =   2
     Q(r) pseudized with 0 coefficients

     PseudoPot. # 2 for H  read from file:
     ./H.pbe-rrkjus_psl.1.0.0.UPF
     MD5 check sum: f52b6d4d1c606e5624b1dc7b2218f220
     Pseudo is Ultrasoft, Zval =  1.0
     Generated using "atomic" code by A. Dal Corso  v.5.1
     Using radial grid of  929 points,  2 beta functions with:
                l(1) =   0
                l(2) =   0
     Q(r) pseudized with 0 coefficients

     PseudoPot. # 3 for Rb read from file:
     ./Rb_ONCV_PBE-1.0.oncvpsp.upf
     MD5 check sum: 55a5172d6bfbce6759a58e35d43f6aa9
     Pseudo is Norm-conserving, Zval =  9.0
     Generated using ONCVPSP code by D. R. Hamann
     Using radial grid of 2308 points,  6 beta functions with:
                l(1) =   0
                l(2) =   0
                l(3) =   1
                l(4) =   1
                l(5) =   2
                l(6) =   2

     atomic species   valence    mass     pseudopotential
        Al             3.00    26.98100     Al( 1.00)
        H              1.00     1.00750     H ( 1.00)
        Rb             9.00    85.46780     Rb( 1.00)

      4 Sym. Ops., with inversion, found ( 2 have fractional translation)

   Cartesian axes

     site n.     atom                  positions (alat units)
         1           Rb  tau(   1) = (  -0.0004932   0.5978765   0.4251870  )
         2           Rb  tau(   2) = (   0.0011157   0.5967270   1.2538319  )
         3           Rb  tau(   3) = (   0.5909665   0.0005748   0.4147182  )
         4           Rb  tau(   4) = (  -0.5903440   1.1940287   1.2643007  )
         5           Rb  tau(   5) = (   0.0003112  -0.0000000   0.8395095  )
         6           Rb  tau(   6) = (   0.5901620   0.5973017   0.0003957  )
         7           Al  tau(   7) = (  -0.0000000  -0.0000000   0.0000000  )
         8           Al  tau(   8) = (  -0.5898508   0.5973017   0.8391137  )
         9           H   tau(   9) = (  -0.5779690   0.5840150   1.1752488  )
        10           H   tau(  10) = (   0.5785915   0.6105885   0.5037702  )
        11           H   tau(  11) = (  -0.0112593  -0.0132867   1.3428839  )
        12           H   tau(  12) = (   0.0118818   1.2078902   0.3361351  )
        13           H   tau(  13) = (  -0.3546115   0.3571832   0.8213654  )
        14           H   tau(  14) = (   0.3552340   0.8374202   0.8576535  )
        15           H   tau(  15) = (  -0.2346168   0.9544850   1.6967673  )
        16           H   tau(  16) = (   0.2352392   0.2401185  -0.0177483  )
        17           H   tau(  17) = (  -0.3485938   0.8318968   0.8396193  )
        18           H   tau(  18) = (   0.3492162   0.3627066   0.8393996  )
        19           H   tau(  19) = (  -0.2406345   0.2345951   1.6785134  )
        20           H   tau(  20) = (   0.2412570   0.9600083   0.0005056  )

     number of k points=    39  Marzari-Vanderbilt smearing, width (Ry)=  0.0050
                       cart. coord. in units 2pi/alat
        k(    1) = (   0.0000000   0.0000000   0.0000000), wk =   0.0160000
        k(    2) = (  -0.0000799   0.0000000   0.1191172), wk =   0.0320000
        k(    3) = (  -0.0001598   0.0000000   0.2382344), wk =   0.0320000
        k(    4) = (   0.0000000   0.1674196   0.0000000), wk =   0.0320000
        k(    5) = (  -0.0000799   0.1674196   0.1191172), wk =   0.0640000
        k(    6) = (  -0.0001598   0.1674196   0.2382344), wk =   0.0640000
        k(    7) = (   0.0000000   0.3348391   0.0000000), wk =   0.0320000
        k(    8) = (  -0.0000799   0.3348391   0.1191172), wk =   0.0640000
        k(    9) = (  -0.0001598   0.3348391   0.2382344), wk =   0.0640000
        k(   10) = (   0.1693652   0.0000000   0.1190544), wk =   0.0320000
        k(   11) = (   0.1692853   0.0000000   0.2381716), wk =   0.0320000
        k(   12) = (   0.1692054   0.0000000   0.3572888), wk =   0.0320000
        k(   13) = (   0.1695249   0.0000000  -0.1191800), wk =   0.0320000
        k(   14) = (   0.1694450   0.0000000  -0.0000628), wk =   0.0320000
        k(   15) = (   0.1693652   0.1674196   0.1190544), wk =   0.0640000
        k(   16) = (   0.1692853   0.1674196   0.2381716), wk =   0.0640000
        k(   17) = (   0.1692054   0.1674196   0.3572888), wk =   0.0640000
        k(   18) = (   0.1695249   0.1674196  -0.1191800), wk =   0.0640000
        k(   19) = (   0.1694450   0.1674196  -0.0000628), wk =   0.0640000
        k(   20) = (   0.1693652   0.3348391   0.1190544), wk =   0.0640000
        k(   21) = (   0.1692853   0.3348391   0.2381716), wk =   0.0640000
        k(   22) = (   0.1692054   0.3348391   0.3572888), wk =   0.0640000
        k(   23) = (   0.1695249   0.3348391  -0.1191800), wk =   0.0640000
        k(   24) = (   0.1694450   0.3348391  -0.0000628), wk =   0.0640000
        k(   25) = (   0.3387303   0.0000000   0.2381088), wk =   0.0320000
        k(   26) = (   0.3386505   0.0000000   0.3572260), wk =   0.0320000
        k(   27) = (   0.3385706   0.0000000   0.4763432), wk =   0.0320000
        k(   28) = (   0.3388901   0.0000000  -0.0001256), wk =   0.0320000
        k(   29) = (   0.3388102   0.0000000   0.1189916), wk =   0.0320000
        k(   30) = (   0.3387303   0.1674196   0.2381088), wk =   0.0640000
        k(   31) = (   0.3386505   0.1674196   0.3572260), wk =   0.0640000
        k(   32) = (   0.3385706   0.1674196   0.4763432), wk =   0.0640000
        k(   33) = (   0.3388901   0.1674196  -0.0001256), wk =   0.0640000
        k(   34) = (   0.3388102   0.1674196   0.1189916), wk =   0.0640000
        k(   35) = (   0.3387303   0.3348391   0.2381088), wk =   0.0640000
        k(   36) = (   0.3386505   0.3348391   0.3572260), wk =   0.0640000
        k(   37) = (   0.3385706   0.3348391   0.4763432), wk =   0.0640000
        k(   38) = (   0.3388901   0.3348391  -0.0001256), wk =   0.0640000
        k(   39) = (   0.3388102   0.3348391   0.1189916), wk =   0.0640000

     Initial potential from superposition of free atoms

     starting charge   71.84671, renormalised to   72.00000
     Starting wfcs are   50 randomized atomic wfcs
     Checking if some PAW data can be deallocated...

     Self-consistent Calculation

[...]

     iteration #  4     ecut=    60.00 Ry     beta= 0.70
     Davidson diagonalization with overlap
     c_bands:  1 eigenvalues not converged
     ethr =  9.91E-06,  avg # of iterations = 10.8

[...]

     total energy              =    -386.83245227 Ry
     estimated scf accuracy    <          7.3E-09 Ry

     iteration #  9     ecut=    60.00 Ry     beta= 0.70
     Davidson diagonalization with overlap
     ethr =  1.02E-11,  avg # of iterations =  2.1

     End of self-consistent calculation

[...]

          k =-0.0002 0.3348 0.2382 ( 18608 PWs)   bands (ev):

[...]

          k = 0.3388 0.3348 0.1190 ( 18578 PWs)   bands (ev):

   -23.4878 -23.4854 -23.4806 -23.4791 -23.1645 -23.1636  -7.8825  -7.8769
    -7.8611  -7.8454  -7.7282  -7.7195  -7.6076  -7.5772  -7.5226  -7.5119
    -7.5060  -7.4916  -7.3333  -7.3026  -7.1965  -7.1909  -7.1809  -7.1766
    -2.3215  -2.2997   0.6189   0.7438   0.9254   1.0098   1.0212   1.0534
     2.3382   2.4010   2.8183   2.8821   6.2056   6.2246   7.5347   7.9313
     7.9592   8.0735   8.1157

     the Fermi energy is     5.0549 ev

!    total energy              =    -386.83245227 Ry
     estimated scf accuracy    <          3.6E-11 Ry
     smearing contrib. (-TS)   =      -0.00000000 Ry
     internal energy E=F+TS    =    -386.83245227 Ry

     The total energy is F=E-TS. E is the sum of the following terms:
     one-electron contribution =     -89.80211832 Ry
     hartree contribution      =      62.56242279 Ry
     xc contribution           =     -58.72775726 Ry
     ewald contribution        =    -231.54007077 Ry
     one-center paw contrib.   =     -69.32492872 Ry

     convergence has been achieved in   9 iterations

     Forces acting on atoms (cartesian axes, Ry/au):

     atom    1 type  3   force =     0.00002341   -0.00011015   -0.00041994
     atom    2 type  3   force =    -0.00002341    0.00011015    0.00041994
     atom    3 type  3   force =    -0.00002341   -0.00011015    0.00041994
     atom    4 type  3   force =     0.00002341    0.00011015   -0.00041994
     atom    5 type  3   force =     0.00000000    0.00000000   -0.00000000
     atom    6 type  3   force =     0.00000000    0.00000000    0.00000000
     atom    7 type  1   force =     0.00000000    0.00000000    0.00000000
     atom    8 type  1   force =     0.00000000    0.00000000    0.00000000
     atom    9 type  2   force =     0.00016643    0.00015395   -0.00008780
     atom   10 type  2   force =    -0.00016643   -0.00015395    0.00008780
     atom   11 type  2   force =    -0.00016643    0.00015395    0.00008780
     atom   12 type  2   force =     0.00016643   -0.00015395   -0.00008780
     atom   13 type  2   force =    -0.00006617   -0.00004750   -0.00000036
     atom   14 type  2   force =     0.00006617    0.00004750    0.00000036
     atom   15 type  2   force =     0.00006617   -0.00004750    0.00000036
     atom   16 type  2   force =    -0.00006617    0.00004750   -0.00000036
     atom   17 type  2   force =    -0.00004668   -0.00005917   -0.00028619
     atom   18 type  2   force =     0.00004668    0.00005917    0.00028619
     atom   19 type  2   force =     0.00004668   -0.00005917    0.00028619
     atom   20 type  2   force =    -0.00004668    0.00005917   -0.00028619

     Total force =     0.001170     Total SCF correction =     0.000004

     Computing stress (Cartesian axis) and pressure

          total   stress  (Ry/bohr**3)                   (kbar)     P=        0.84
   0.00000735   0.00000000  -0.00000031            1.08        0.00       -0.05
   0.00000000   0.00000412   0.00000000            0.00        0.61        0.00
  -0.00000031   0.00000000   0.00000558           -0.05        0.00        0.82

     Writing output data file ./Rb3AlH6.save/

     General routines

     Parallel routines

   This run was terminated on:  16:40:53  30Nov2023

   JOB DONE.