     Program PWSCF v.6.8 starts on 30Nov2023 at 16: 4:22

     R & G space division:  proc/nbgrp/npool/nimage =      12

     Reading input from input2.in

     Current dimensions of program PWSCF are:
     Max number of different atomic species (ntypx) = 10
     Max number of k-points (npk) =  40000
     Max angular momentum in pseudopotentials (lmaxx) =  4
     file Al.pbe-n-kjpaw_psl.1.0.0.UPF: wavefunction(s)  3S 3P renormalized

     IMPORTANT: XC functional enforced from input :
     Exchange-correlation= PBE
                           (   1   4   3   4   0   0   0)
     Any further DFT definition will be discarded
     Please, verify this is what you really want

     Message from routine setup:
     using ibrav=0 with symmetry is DISCOURAGED, use correct ibrav instead

     Using Slab Decomposition

     bravais-lattice index     =            0
     lattice parameter (alat)  =      12.6114  a.u.
     unit-cell volume          =    3067.3013 (a.u.)^3
     number of atoms/cell      =           44
     number of atomic types    =            3
     number of electrons       =       136.00
     number of Kohn-Sham states=           82
     kinetic-energy cutoff     =      60.0000  Ry
     charge density cutoff     =     240.0000  Ry
     scf convergence threshold =      1.0E-08
     mixing beta               =       0.7000
     number of iterations used =            8  plain     mixing
     energy convergence thresh.=      1.0E-04
     force convergence thresh. =      1.0E-03
     press convergence thresh. =      5.0E-01
     Exchange-correlation= PBE
                           (   1   4   3   4   0   0   0)
     nstep                     =           50

     celldm(1)=  12.611352  celldm(2)=   0.000000  celldm(3)=   0.000000
     celldm(4)=   0.000000  celldm(5)=   0.000000  celldm(6)=   0.000000

     crystal axes: (cart. coord. in units of alat)
               a(1) = (   1.000000   0.000000   0.000000 )
               a(2) = (   0.000000   1.000000   0.000000 )
               a(3) = (   0.000000   0.000000   1.529225 )

     reciprocal axes: (cart. coord. in units 2 pi/alat)
               b(1) = (  1.000000  0.000000  0.000000 )
               b(2) = (  0.000000  1.000000  0.000000 )
               b(3) = (  0.000000  0.000000  0.653926 )

     PseudoPot. # 1 for Al read from file:
     ./Al.pbe-n-kjpaw_psl.1.0.0.UPF
     MD5 check sum: cfc449ca30b5f3223ec38ddd88ac046d
     Pseudo is Projector augmented-wave + core cor, Zval =  3.0
     Generated using "atomic" code by A. Dal Corso  v.5.1
     Shape of augmentation charge: PSQ
     Using radial grid of 1135 points,  6 beta functions with:
                l(1) =   0
                l(2) =   0
                l(3) =   1
                l(4) =   1
                l(5) =   2
                l(6) =   2
     Q(r) pseudized with 0 coefficients

     PseudoPot. # 2 for H  read from file:
     ./H.pbe-rrkjus_psl.1.0.0.UPF
     MD5 check sum: f52b6d4d1c606e5624b1dc7b2218f220
     Pseudo is Ultrasoft, Zval =  1.0
     Generated using "atomic" code by A. Dal Corso  v.5.1
     Using radial grid of  929 points,  2 beta functions with:
                l(1) =   0
                l(2) =   0
     Q(r) pseudized with 0 coefficients

     PseudoPot. # 3 for Rb read from file:
     ./Rb_ONCV_PBE-1.0.oncvpsp.upf
     MD5 check sum: 55a5172d6bfbce6759a58e35d43f6aa9
     Pseudo is Norm-conserving, Zval =  9.0
     Generated using ONCVPSP code by D. R. Hamann
     Using radial grid of 2308 points,  6 beta functions with:
                l(1) =   0
                l(2) =   0
                l(3) =   1
                l(4) =   1
                l(5) =   2
                l(6) =   2

     atomic species   valence    mass     pseudopotential
        Al             3.00    26.98100     Al( 1.00)
        H              1.00     1.00750     H ( 1.00)
        Rb             9.00    85.46780     Rb( 1.00)

     16 Sym. Ops., with inversion, found ( 8 have fractional translation)

   Cartesian axes

     site n.     atom                  positions (alat units)
         1           Rb  tau(   1) = (   0.1891385   0.3108615   0.3823064  )
         2           Rb  tau(   2) = (   0.8108615   0.6891385   1.1469191  )
         3           Rb  tau(   3) = (   0.6891385   0.1891385   0.3823064  )
         4           Rb  tau(   4) = (   0.3108615   0.8108615   1.1469191  )
         5           Rb  tau(   5) = (   0.8108615   0.6891385   0.3823064  )
         6           Rb  tau(   6) = (   0.1891385   0.3108615   1.1469191  )
         7           Rb  tau(   7) = (   0.3108615   0.8108615   0.3823064  )
         8           Rb  tau(   8) = (   0.6891385   0.1891385   1.1469191  )
         9           Rb  tau(   9) = (   0.0000000   0.0000000   0.7646127  )
        10           Rb  tau(  10) = (   0.5000000   0.5000000   0.0000000  )
        11           Al  tau(  11) = (   0.0000000   0.5000000   0.0000000  )
        12           Al  tau(  12) = (   0.5000000   0.0000000   0.0000000  )
        13           Al  tau(  13) = (   0.5000000   0.0000000   0.7646127  )
        14           Al  tau(  14) = (   0.0000000   0.5000000   0.7646127  )
        15           Al  tau(  15) = (   0.0000000   0.0000000   0.0000000  )
        16           Al  tau(  16) = (   0.5000000   0.5000000   0.7646127  )
        17           H   tau(  17) = (   0.0842038   0.6544766   0.5972927  )
        18           H   tau(  18) = (   0.9157962   0.3455234   0.9319328  )
        19           H   tau(  19) = (   0.3455234   0.0842038   0.5972927  )
        20           H   tau(  20) = (   0.6544766   0.9157962   0.9319328  )
        21           H   tau(  21) = (   0.9157962   0.3455234   0.5972927  )
        22           H   tau(  22) = (   0.0842038   0.6544766   0.9319328  )
        23           H   tau(  23) = (   0.6544766   0.9157962   0.5972927  )
        24           H   tau(  24) = (   0.3455234   0.0842038   0.9319328  )
        25           H   tau(  25) = (   0.5842038   0.8455234   0.1673200  )
        26           H   tau(  26) = (   0.4157962   0.1544766   1.3619054  )
        27           H   tau(  27) = (   0.8455234   0.4157962   0.1673200  )
        28           H   tau(  28) = (   0.1544766   0.5842038   1.3619054  )
        29           H   tau(  29) = (   0.4157962   0.1544766   0.1673200  )
        30           H   tau(  30) = (   0.5842038   0.8455234   1.3619054  )
        31           H   tau(  31) = (   0.1544766   0.5842038   0.1673200  )
        32           H   tau(  32) = (   0.8455234   0.4157962   1.3619054  )
        33           H   tau(  33) = (   0.1050928   0.2469715   0.0000000  )
        34           H   tau(  34) = (   0.8949072   0.7530285   0.0000000  )
        35           H   tau(  35) = (   0.7530285   0.1050928   0.0000000  )
        36           H   tau(  36) = (   0.2469715   0.8949072   0.0000000  )
        37           H   tau(  37) = (   0.6050928   0.2530285   0.7646127  )
        38           H   tau(  38) = (   0.3949072   0.7469715   0.7646127  )
        39           H   tau(  39) = (   0.2530285   0.3949072   0.7646127  )
        40           H   tau(  40) = (   0.7469715   0.6050928   0.7646127  )
        41           H   tau(  41) = (   0.0000000   0.0000000   0.2510700  )
        42           H   tau(  42) = (   0.0000000   0.0000000   1.2781555  )
        43           H   tau(  43) = (   0.5000000   0.5000000   0.5135428  )
        44           H   tau(  44) = (   0.5000000   0.5000000   1.0156827  )

     number of k points=    18  Marzari-Vanderbilt smearing, width (Ry)=  0.0050
                       cart. coord. in units 2pi/alat
        k(    1) = (   0.0000000   0.0000000   0.0000000), wk =   0.0160000
        k(    2) = (   0.0000000   0.0000000   0.1307852), wk =   0.0320000
        k(    3) = (   0.0000000   0.0000000   0.2615703), wk =   0.0320000
        k(    4) = (   0.0000000   0.2000000   0.0000000), wk =   0.0640000
        k(    5) = (   0.0000000   0.2000000   0.1307852), wk =   0.1280000
        k(    6) = (   0.0000000   0.2000000   0.2615703), wk =   0.1280000
        k(    7) = (   0.0000000   0.4000000   0.0000000), wk =   0.0640000
        k(    8) = (   0.0000000   0.4000000   0.1307852), wk =   0.1280000
        k(    9) = (   0.0000000   0.4000000   0.2615703), wk =   0.1280000
        k(   10) = (   0.2000000   0.2000000   0.0000000), wk =   0.0640000
        k(   11) = (   0.2000000   0.2000000   0.1307852), wk =   0.1280000
        k(   12) = (   0.2000000   0.2000000   0.2615703), wk =   0.1280000
        k(   13) = (   0.2000000   0.4000000   0.0000000), wk =   0.1280000
        k(   14) = (   0.2000000   0.4000000   0.1307852), wk =   0.2560000
        k(   15) = (   0.2000000   0.4000000   0.2615703), wk =   0.2560000
        k(   16) = (   0.4000000   0.4000000   0.0000000), wk =   0.0640000
        k(   17) = (   0.4000000   0.4000000   0.1307852), wk =   0.1280000
        k(   18) = (   0.4000000   0.4000000   0.2615703), wk =   0.1280000

     Initial potential from superposition of free atoms

     starting charge  135.73834, renormalised to  136.00000
     Starting wfcs are  102 randomized atomic wfcs
     Checking if some PAW data can be deallocated...

     Self-consistent Calculation

     iteration #  1     ecut=    60.00 Ry     beta= 0.70
     Davidson diagonalization with overlap
     ethr =  1.00E-02,  avg # of iterations =  6.7

     total energy              =    -758.21063964 Ry
     estimated scf accuracy    <       2.78381376 Ry

[...]

     iteration #  4     ecut=    60.00 Ry     beta= 0.70
     Davidson diagonalization with overlap
     c_bands:  1 eigenvalues not converged
     ethr =  7.75E-06,  avg # of iterations = 10.9

[...]

     End of self-consistent calculation

          k = 0.0000 0.0000 0.0000 ( 24099 PWs)   bands (ev):

   -20.1981 -20.1719 -19.6921 -19.6655 -19.4796 -19.4796 -19.4765 -19.4765
   -19.3804 -19.3776  -5.4271  -5.2399  -5.1149  -5.0421  -5.0421  -4.9756
    -4.8279  -4.6274  -4.5208  -4.5178  -4.5178  -4.5014  -4.5014  -4.2478
    -4.2478  -3.9127  -3.8134  -3.8134  -3.6891  -3.6786  -3.5690  -3.5690
    -3.5250  -3.4698  -3.1699  -3.1551  -3.1139  -3.1139  -3.1074  -3.1074
    -1.8185  -0.1903   0.0794   0.7429   1.3398   1.7461   1.7461   2.0786
     2.2437   2.3819   2.3819   3.1105   3.3492   3.8194   3.8194   3.8205
     4.3946   4.3946   4.6060   4.7079   4.7089   4.7526   4.8150   4.9155
     4.9155   5.8550   5.8550   5.8590   9.1352  10.1204  10.4570  10.4976
    10.7544  10.7544  10.7988  10.7988  10.8960  11.0907  11.5450  11.6100
    11.6505  11.6505

[...]

     the Fermi energy is     8.4582 ev

!    total energy              =    -758.70071482 Ry
     estimated scf accuracy    <          6.1E-09 Ry
     smearing contrib. (-TS)   =      -0.00000000 Ry
     internal energy E=F+TS    =    -758.70071482 Ry

     The total energy is F=E-TS. E is the sum of the following terms:
     one-electron contribution =     -62.92704486 Ry
     hartree contribution      =      85.35635601 Ry
     xc contribution           =    -113.36869960 Ry
     ewald contribution        =    -459.62368793 Ry
     one-center paw contrib.   =    -208.13763845 Ry

[...]
Al            0.5000000000        0.0000000000        0.0000000000
Al            0.5000000000        0.0000000000        0.5000000000
Al            0.0000000000        0.5000000000        0.5000000000
Al            0.0000000000        0.0000000000        0.0000000000
Al            0.5000000000        0.5000000000        0.5000000000
H             0.0245275314        0.6599848688        0.3975959227
H             0.9754724686        0.3400151312        0.6024040773
H             0.3400151312        0.0245275314        0.3975959227
H             0.6599848688        0.9754724686        0.6024040773
H             0.9754724686        0.3400151312        0.3975959227
H             0.0245275314        0.6599848688        0.6024040773
H             0.6599848688        0.9754724686        0.3975959227
H             0.3400151312        0.0245275314        0.6024040773
H             0.5245275314        0.8400151312        0.1024040773
H             0.4754724686        0.1599848688        0.8975959227
H             0.8400151312        0.4754724686        0.1024040773
H             0.1599848688        0.5245275314        0.8975959227
H             0.4754724686        0.1599848688        0.1024040773
H             0.5245275314        0.8400151312        0.8975959227
H             0.1599848688        0.5245275314        0.1024040773
H             0.8400151312        0.4754724686        0.8975959227
H             0.0298700609        0.2429459153       -0.0000000000
H             0.9701299391        0.7570540847        0.0000000000
H             0.7570540847        0.0298700609       -0.0000000000
H             0.2429459153        0.9701299391       -0.0000000000
H             0.5298700609        0.2570540847        0.5000000000
H             0.4701299391        0.7429459153        0.5000000000
H             0.2570540847        0.4701299391        0.5000000000
H             0.7429459153        0.5298700609        0.5000000000
H             0.0000000000        0.0000000000        0.1489990074
H             0.0000000000        0.0000000000        0.8510009926
H             0.5000000000        0.5000000000        0.3510009926
H             0.5000000000        0.5000000000        0.6489990074
End final coordinates

     Writing output data file ./Rb5Al3H14.save/

     Final scf calculation at the relaxed structure.
     The G-vectors are recalculated for the final unit cell
     Results may differ from those at the preceding step.

     Using Slab Decomposition

     bravais-lattice index     =            0
     lattice parameter (alat)  =      12.6114  a.u.
     unit-cell volume          =    4592.3403 (a.u.)^3
     number of atoms/cell      =           44
     number of atomic types    =            3
     number of electrons       =       136.00
     number of Kohn-Sham states=           82
     kinetic-energy cutoff     =      60.0000  Ry
     charge density cutoff     =     240.0000  Ry
     scf convergence threshold =      1.0E-10
     mixing beta               =       0.7000
     number of iterations used =            8  plain     mixing
     press convergence thresh. =      5.0E-01
     Exchange-correlation= PBE
                           (   1   4   3   4   0   0   0)

     celldm(1)=  12.611352  celldm(2)=   0.000000  celldm(3)=   0.000000
     celldm(4)=   0.000000  celldm(5)=   0.000000  celldm(6)=   0.000000

     crystal axes: (cart. coord. in units of alat)
               a(1) = (   1.140367   0.000000   0.000000 )
               a(2) = (   0.000000   1.140367   0.000000 )
               a(3) = (   0.000000   0.000000   1.760596 )

     reciprocal axes: (cart. coord. in units 2 pi/alat)
               b(1) = (  0.876910  0.000000  0.000000 )
               b(2) = (  0.000000  0.876910  0.000000 )
               b(3) = (  0.000000  0.000000  0.567990 )

     PseudoPot. # 1 for Al read from file:
     ./Al.pbe-n-kjpaw_psl.1.0.0.UPF
     MD5 check sum: cfc449ca30b5f3223ec38ddd88ac046d
     Pseudo is Projector augmented-wave + core cor, Zval =  3.0
     Generated using "atomic" code by A. Dal Corso  v.5.1
     Shape of augmentation charge: PSQ
     Using radial grid of 1135 points,  6 beta functions with:
                l(1) =   0
                l(2) =   0
                l(3) =   1
                l(4) =   1
                l(5) =   2
                l(6) =   2
     Q(r) pseudized with 0 coefficients

     PseudoPot. # 2 for H  read from file:
     ./H.pbe-rrkjus_psl.1.0.0.UPF
     MD5 check sum: f52b6d4d1c606e5624b1dc7b2218f220
     Pseudo is Ultrasoft, Zval =  1.0
     Generated using "atomic" code by A. Dal Corso  v.5.1
     Using radial grid of  929 points,  2 beta functions with:
                l(1) =   0
                l(2) =   0
     Q(r) pseudized with 0 coefficients

     PseudoPot. # 3 for Rb read from file:
     ./Rb_ONCV_PBE-1.0.oncvpsp.upf
     MD5 check sum: 55a5172d6bfbce6759a58e35d43f6aa9
     Pseudo is Norm-conserving, Zval =  9.0
     Generated using ONCVPSP code by D. R. Hamann
     Using radial grid of 2308 points,  6 beta functions with:
                l(1) =   0
                l(2) =   0
                l(3) =   1
                l(4) =   1
                l(5) =   2
                l(6) =   2

     atomic species   valence    mass     pseudopotential
        Al             3.00    26.98100     Al( 1.00)
        H              1.00     1.00750     H ( 1.00)
        Rb             9.00    85.46780     Rb( 1.00)

     16 Sym. Ops., with inversion, found ( 8 have fractional translation)

   Cartesian axes

     site n.     atom                  positions (alat units)
         1           Rb  tau(   1) = (   0.2567234   0.3134602   0.4401489  )
         2           Rb  tau(   2) = (   0.8836438   0.8269071   1.3204468  )
         3           Rb  tau(   3) = (   0.8269071   0.2567234   0.4401489  )
         4           Rb  tau(   4) = (   0.3134602   0.8836438   1.3204468  )
         5           Rb  tau(   5) = (   0.8836438   0.8269071   0.4401489  )
         6           Rb  tau(   6) = (   0.2567234   0.3134602   1.3204468  )
         7           Rb  tau(   7) = (   0.3134602   0.8836438   0.4401489  )
         8           Rb  tau(   8) = (   0.8269071   0.2567234   1.3204468  )
         9           Rb  tau(   9) = (   0.0000000   0.0000000   0.8802978  )
        10           Rb  tau(  10) = (   0.5701836   0.5701836   0.0000000  )
        11           Al  tau(  11) = (   0.0000000   0.5701836   0.0000000  )
        12           Al  tau(  12) = (   0.5701836   0.0000000   0.0000000  )
        13           Al  tau(  13) = (   0.5701836   0.0000000   0.8802978  )
        14           Al  tau(  14) = (   0.0000000   0.5701836   0.8802978  )
        15           Al  tau(  15) = (   0.0000000   0.0000000   0.0000000  )
        16           Al  tau(  16) = (   0.5701836   0.5701836   0.8802978  )
        17           H   tau(  17) = (   0.0279704   0.7526252   0.7000057  )
        18           H   tau(  18) = (   1.1123969   0.3877421   1.0605900  )
        19           H   tau(  19) = (   0.3877421   0.0279704   0.7000057  )
        20           H   tau(  20) = (   0.7526252   1.1123969   1.0605900  )
        21           H   tau(  21) = (   1.1123969   0.3877421   0.7000057  )
        22           H   tau(  22) = (   0.0279704   0.7526252   1.0605900  )
        23           H   tau(  23) = (   0.7526252   1.1123969   0.7000057  )
        24           H   tau(  24) = (   0.3877421   0.0279704   1.0605900  )
        25           H   tau(  25) = (   0.5981540   0.9579258   0.1802922  )
        26           H   tau(  26) = (   0.5422133   0.1824415   1.5803035  )
        27           H   tau(  27) = (   0.9579258   0.5422133   0.1802922  )
        28           H   tau(  28) = (   0.1824415   0.5981540   1.5803035  )
        29           H   tau(  29) = (   0.5422133   0.1824415   0.1802922  )
        30           H   tau(  30) = (   0.5981540   0.9579258   1.5803035  )
        31           H   tau(  31) = (   0.1824415   0.5981540   0.1802922  )
        32           H   tau(  32) = (   0.9579258   0.5422133   1.5803035  )
        33           H   tau(  33) = (   0.0340628   0.2770476  -0.0000000  )
        34           H   tau(  34) = (   1.1063044   0.8633197   0.0000000  )
        35           H   tau(  35) = (   0.8633197   0.0340628  -0.0000000  )
        36           H   tau(  36) = (   0.2770476   1.1063044  -0.0000000  )
        37           H   tau(  37) = (   0.6042465   0.2931361   0.8802978  )
        38           H   tau(  38) = (   0.5361208   0.8472312   0.8802978  )
        39           H   tau(  39) = (   0.2931361   0.5361208   0.8802978  )
        40           H   tau(  40) = (   0.8472312   0.6042465   0.8802978  )
        41           H   tau(  41) = (   0.0000000   0.0000000   0.2623270  )
        42           H   tau(  42) = (   0.0000000   0.0000000   1.4982687  )
        43           H   tau(  43) = (   0.5701836   0.5701836   0.6179708  )
        44           H   tau(  44) = (   0.5701836   0.5701836   1.1426249  )

     number of k points=    18  Marzari-Vanderbilt smearing, width (Ry)=  0.0050
                       cart. coord. in units 2pi/alat
        k(    1) = (   0.0000000   0.0000000   0.0000000), wk =   0.0160000
        k(    2) = (   0.0000000   0.0000000   0.1135979), wk =   0.0320000
        k(    3) = (   0.0000000   0.0000000   0.2271958), wk =   0.0320000
        k(    4) = (   0.0000000   0.1753821   0.0000000), wk =   0.0640000
        k(    5) = (   0.0000000   0.1753821   0.1135979), wk =   0.1280000
        k(    6) = (   0.0000000   0.1753821   0.2271958), wk =   0.1280000
        k(    7) = (   0.0000000   0.3507642   0.0000000), wk =   0.0640000
        k(    8) = (   0.0000000   0.3507642   0.1135979), wk =   0.1280000
        k(    9) = (   0.0000000   0.3507642   0.2271958), wk =   0.1280000
        k(   10) = (   0.1753821   0.1753821   0.0000000), wk =   0.0640000
        k(   11) = (   0.1753821   0.1753821   0.1135979), wk =   0.1280000
        k(   12) = (   0.1753821   0.1753821   0.2271958), wk =   0.1280000
        k(   13) = (   0.1753821   0.3507642   0.0000000), wk =   0.1280000
        k(   14) = (   0.1753821   0.3507642   0.1135979), wk =   0.2560000
        k(   15) = (   0.1753821   0.3507642   0.2271958), wk =   0.2560000
        k(   16) = (   0.3507642   0.3507642   0.0000000), wk =   0.0640000
        k(   17) = (   0.3507642   0.3507642   0.1135979), wk =   0.1280000
        k(   18) = (   0.3507642   0.3507642   0.2271958), wk =   0.1280000

     Initial potential from superposition of free atoms

     starting charge  135.73834, renormalised to  136.00000
     Starting wfcs are  102 randomized atomic wfcs
     Checking if some PAW data can be deallocated...

     Self-consistent Calculation

[...]

     iteration #  5     ecut=    60.00 Ry     beta= 0.70
     Davidson diagonalization with overlap
     c_bands:  1 eigenvalues not converged
     ethr =  3.27E-07,  avg # of iterations =  6.9

[...]

     total energy              =    -759.40307742 Ry
     estimated scf accuracy    <          9.3E-10 Ry

     iteration # 10     ecut=    60.00 Ry     beta= 0.70
     Davidson diagonalization with overlap
     ethr =  6.83E-13,  avg # of iterations =  3.7

     End of self-consistent calculation

[...]

          k = 0.3508 0.3508 0.2272 ( 36029 PWs)   bands (ev):

   -23.5553 -23.5549 -23.4765 -23.4752 -23.4637 -23.4636 -23.4613 -23.4601
   -23.4487 -23.4484  -8.0646  -8.0547  -7.8919  -7.8686  -7.8617  -7.8333
    -7.8233  -7.8033  -7.7816  -7.7790  -7.7153  -7.7011  -7.6755  -7.6725
    -7.6299  -7.6264  -7.5908  -7.5857  -7.5707  -7.5665  -7.5336  -7.5323
    -7.5300  -7.5276  -7.4770  -7.4758  -7.4684  -7.4530  -7.4282  -7.4231
    -3.1216  -3.0904  -2.7368  -2.7159  -2.5694  -2.5596   0.0169   0.0395
     0.2145   0.2348   0.3443   0.3753   0.4042   0.4809   0.5019   0.5260
     0.7721   0.7904   0.9875   1.0142   1.5991   1.6167   1.8221   1.8358
     2.3731   2.3958   2.5669   2.5867   5.9444   5.9707   6.3694   6.3762
     6.8958   6.9604   7.1145   7.2059   7.4486   7.5352   7.6052   7.6239
     7.8271   7.9102

     the Fermi energy is     4.4859 ev

!    total energy              =    -759.40307742 Ry
     estimated scf accuracy    <          5.4E-11 Ry
     smearing contrib. (-TS)   =       0.00000000 Ry
     internal energy E=F+TS    =    -759.40307742 Ry

     The total energy is F=E-TS. E is the sum of the following terms:
     one-electron contribution =    -152.68282391 Ry
     hartree contribution      =     111.37016351 Ry
     xc contribution           =    -110.43496010 Ry
     ewald contribution        =    -399.68342580 Ry
     one-center paw contrib.   =    -207.97203112 Ry

     convergence has been achieved in  10 iterations

     Forces acting on atoms (cartesian axes, Ry/au):

     atom    1 type  3   force =     0.00016568   -0.00016568    0.00000000
     atom    2 type  3   force =    -0.00016568    0.00016568   -0.00000000
     atom    3 type  3   force =     0.00016568    0.00016568   -0.00000000
     atom    4 type  3   force =    -0.00016568   -0.00016568    0.00000000
     atom    5 type  3   force =    -0.00016568    0.00016568    0.00000000
     atom    6 type  3   force =     0.00016568   -0.00016568   -0.00000000
     atom    7 type  3   force =    -0.00016568   -0.00016568   -0.00000000
     atom    8 type  3   force =     0.00016568    0.00016568    0.00000000
     atom    9 type  3   force =     0.00000000    0.00000000   -0.00000000
     atom   10 type  3   force =     0.00000000    0.00000000    0.00000000
     atom   11 type  1   force =     0.00000000    0.00000000    0.00000000
     atom   12 type  1   force =     0.00000000    0.00000000    0.00000000
     atom   13 type  1   force =     0.00000000    0.00000000    0.00000000
     atom   14 type  1   force =     0.00000000    0.00000000    0.00000000
     atom   15 type  1   force =     0.00000000    0.00000000    0.00000000
     atom   16 type  1   force =     0.00000000    0.00000000    0.00000000
     atom   17 type  2   force =     0.00005028   -0.00002233    0.00001712
     atom   18 type  2   force =    -0.00005028    0.00002233   -0.00001712
     atom   19 type  2   force =     0.00002233    0.00005028    0.00001712
     atom   20 type  2   force =    -0.00002233   -0.00005028   -0.00001712
     atom   21 type  2   force =    -0.00005028    0.00002233    0.00001712
     atom   22 type  2   force =     0.00005028   -0.00002233   -0.00001712
     atom   23 type  2   force =    -0.00002233   -0.00005028    0.00001712
     atom   24 type  2   force =     0.00002233    0.00005028   -0.00001712
     atom   25 type  2   force =     0.00005028    0.00002233   -0.00001712
     atom   26 type  2   force =    -0.00005028   -0.00002233    0.00001712
     atom   27 type  2   force =     0.00002233   -0.00005028   -0.00001712
     atom   28 type  2   force =    -0.00002233    0.00005028    0.00001712
     atom   29 type  2   force =    -0.00005028   -0.00002233   -0.00001712
     atom   30 type  2   force =     0.00005028    0.00002233    0.00001712
     atom   31 type  2   force =    -0.00002233    0.00005028   -0.00001712
     atom   32 type  2   force =     0.00002233   -0.00005028    0.00001712
     atom   33 type  2   force =     0.00011823    0.00009752    0.00000000
     atom   34 type  2   force =    -0.00011823   -0.00009752   -0.00000000
     atom   35 type  2   force =    -0.00009752    0.00011823    0.00000000
     atom   36 type  2   force =     0.00009752   -0.00011823    0.00000000
     atom   37 type  2   force =     0.00011823   -0.00009752    0.00000000
     atom   38 type  2   force =    -0.00011823    0.00009752    0.00000000
     atom   39 type  2   force =    -0.00009752   -0.00011823    0.00000000
     atom   40 type  2   force =     0.00009752    0.00011823    0.00000000
     atom   41 type  2   force =     0.00000000    0.00000000    0.00040546
     atom   42 type  2   force =     0.00000000    0.00000000   -0.00040546
     atom   43 type  2   force =     0.00000000    0.00000000   -0.00040546
     atom   44 type  2   force =     0.00000000    0.00000000    0.00040546

     Total force =     0.001157     Total SCF correction =     0.000004

     Computing stress (Cartesian axis) and pressure

          total   stress  (Ry/bohr**3)                   (kbar)     P=        0.60
   0.00000251   0.00000000   0.00000000            0.37        0.00        0.00
   0.00000000   0.00000251   0.00000000            0.00        0.37        0.00
   0.00000000   0.00000000   0.00000731            0.00        0.00        1.08

     Writing output data file ./Rb5Al3H14.save/

     General routines

     Parallel routines

   This run was terminated on:  17:18: 3  30Nov2023

   JOB DONE.