     Program PWSCF v.6.8 starts on 23Nov2023 at 16:14:42

     R & G space division:  proc/nbgrp/npool/nimage =      12

     Reading input from input_cellopt.in

     Current dimensions of program PWSCF are:
     Max number of different atomic species (ntypx) = 10
     Max number of k-points (npk) =  40000
     Max angular momentum in pseudopotentials (lmaxx) =  4
     file Al.pbe-n-kjpaw_psl.1.0.0.UPF: wavefunction(s)  3S 3P renormalized

     IMPORTANT: XC functional enforced from input :
     Exchange-correlation= PBE
                           (   1   4   3   4   0   0   0)
     Any further DFT definition will be discarded
     Please, verify this is what you really want

     Message from routine setup:
     using ibrav=0 with symmetry is DISCOURAGED, use correct ibrav instead

     Using Slab Decomposition

     bravais-lattice index     =            0
     lattice parameter (alat)  =      17.6546  a.u.
     unit-cell volume          =    2770.2535 (a.u.)^3
     number of atoms/cell      =           24
     number of atomic types    =            3
     number of electrons       =        64.00
     number of Kohn-Sham states=           38
     kinetic-energy cutoff     =      60.0000  Ry
     charge density cutoff     =     240.0000  Ry
     scf convergence threshold =      1.0E-08
     mixing beta               =       0.7000
     number of iterations used =            8  plain     mixing
     energy convergence thresh.=      1.0E-04
     force convergence thresh. =      1.0E-03
     press convergence thresh. =      5.0E-01
     Exchange-correlation= PBE
                           (   1   4   3   4   0   0   0)
     nstep                     =           50

     celldm(1)=  17.654615  celldm(2)=   0.000000  celldm(3)=   0.000000
     celldm(4)=   0.000000  celldm(5)=   0.000000  celldm(6)=   0.000000

     crystal axes: (cart. coord. in units of alat)
               a(1) = (   1.000000   0.000000   0.000000 )
               a(2) = (   0.000000   0.621972   0.000000 )
               a(3) = (   0.000000   0.000000   0.809421 )

     reciprocal axes: (cart. coord. in units 2 pi/alat)
               b(1) = (  1.000000  0.000000  0.000000 )
               b(2) = (  0.000000  1.607791  0.000000 )
               b(3) = (  0.000000  0.000000  1.235452 )

     PseudoPot. # 1 for Rb read from file:
     ./Rb_ONCV_PBE-1.0.oncvpsp.upf
     MD5 check sum: 55a5172d6bfbce6759a58e35d43f6aa9
     Pseudo is Norm-conserving, Zval =  9.0
     Generated using ONCVPSP code by D. R. Hamann
     Using radial grid of 2308 points,  6 beta functions with:
                l(1) =   0
                l(2) =   0
                l(3) =   1
                l(4) =   1
                l(5) =   2
                l(6) =   2

     PseudoPot. # 2 for H  read from file:
     ./H.pbe-rrkjus_psl.1.0.0.UPF
     MD5 check sum: f52b6d4d1c606e5624b1dc7b2218f220
     Pseudo is Ultrasoft, Zval =  1.0
     Generated using "atomic" code by A. Dal Corso  v.5.1
     Using radial grid of  929 points,  2 beta functions with:
                l(1) =   0
                l(2) =   0
     Q(r) pseudized with 0 coefficients

     PseudoPot. # 3 for Al read from file:
     ./Al.pbe-n-kjpaw_psl.1.0.0.UPF
     MD5 check sum: cfc449ca30b5f3223ec38ddd88ac046d
     Pseudo is Projector augmented-wave + core cor, Zval =  3.0
     Generated using "atomic" code by A. Dal Corso  v.5.1
     Shape of augmentation charge: PSQ
     Using radial grid of 1135 points,  6 beta functions with:
                l(1) =   0
                l(2) =   0
                l(3) =   1
                l(4) =   1
                l(5) =   2
                l(6) =   2
     Q(r) pseudized with 0 coefficients

     atomic species   valence    mass     pseudopotential
        Rb             9.00    85.46780     Rb( 1.00)
        H              1.00     1.00750     H ( 1.00)
        Al             3.00    26.98100     Al( 1.00)

      8 Sym. Ops., with inversion, found ( 6 have fractional translation)

   Cartesian axes

     site n.     atom                  positions (alat units)
         1           Rb  tau(   1) = (   0.1813250   0.1554929   0.5339807  )
         2           Rb  tau(   2) = (   0.3186750   0.4664787   0.1292704  )
         3           Rb  tau(   3) = (   0.8186750   0.4664787   0.2754398  )
         4           Rb  tau(   4) = (   0.6813250   0.1554929   0.6801501  )
         5           Al  tau(   5) = (   0.0618381   0.1554929   0.1506961  )
         6           Al  tau(   6) = (   0.4381619   0.4664787   0.5554064  )
         7           Al  tau(   7) = (   0.9381619   0.4664787   0.6587244  )
         8           Al  tau(   8) = (   0.5618381   0.1554929   0.2540141  )
         9           H   tau(   9) = (   0.0802315   0.0141086   0.2528744  )
        10           H   tau(  10) = (   0.4197685   0.3250944   0.6575847  )
        11           H   tau(  11) = (   0.4197685   0.6078630   0.6575847  )
        12           H   tau(  12) = (   0.9197685   0.3250944   0.5565461  )
        13           H   tau(  13) = (   0.9197685   0.6078630   0.5565461  )
        14           H   tau(  14) = (   0.5802315   0.2968772   0.1518359  )
        15           H   tau(  15) = (   0.5802315   0.0141086   0.1518359  )
        16           H   tau(  16) = (   0.0802315   0.2968772   0.2528744  )
        17           H   tau(  17) = (   0.0981417   0.4664787   0.7284224  )
        18           H   tau(  18) = (   0.4018583   0.1554929   0.3237121  )
        19           H   tau(  19) = (   0.9018583   0.1554929   0.0809982  )
        20           H   tau(  20) = (   0.5981417   0.4664787   0.4857084  )
        21           H   tau(  21) = (   0.1895212   0.1554929   0.0317295  )
        22           H   tau(  22) = (   0.3104788   0.4664787   0.4364398  )
        23           H   tau(  23) = (   0.8104788   0.4664787   0.7776910  )
        24           H   tau(  24) = (   0.6895212   0.1554929   0.3729807  )

     number of k points=    27  Marzari-Vanderbilt smearing, width (Ry)=  0.0050
                       cart. coord. in units 2pi/alat
        k(    1) = (   0.0000000   0.0000000   0.0000000), wk =   0.0160000
        k(    2) = (   0.0000000   0.0000000   0.2470903), wk =   0.0320000
        k(    3) = (   0.0000000   0.0000000   0.4941807), wk =   0.0320000
        k(    4) = (   0.0000000   0.3215581   0.0000000), wk =   0.0320000
        k(    5) = (   0.0000000   0.3215581   0.2470903), wk =   0.0640000
        k(    6) = (   0.0000000   0.3215581   0.4941807), wk =   0.0640000
        k(    7) = (   0.0000000   0.6431162   0.0000000), wk =   0.0320000
        k(    8) = (   0.0000000   0.6431162   0.2470903), wk =   0.0640000
        k(    9) = (   0.0000000   0.6431162   0.4941807), wk =   0.0640000
        k(   10) = (   0.2000000   0.0000000   0.0000000), wk =   0.0320000
        k(   11) = (   0.2000000   0.0000000   0.2470903), wk =   0.0640000
        k(   12) = (   0.2000000   0.0000000   0.4941807), wk =   0.0640000
        k(   13) = (   0.2000000   0.3215581   0.0000000), wk =   0.0640000
        k(   14) = (   0.2000000   0.3215581   0.2470903), wk =   0.1280000
        k(   15) = (   0.2000000   0.3215581   0.4941807), wk =   0.1280000
        k(   16) = (   0.2000000   0.6431162   0.0000000), wk =   0.0640000
        k(   17) = (   0.2000000   0.6431162   0.2470903), wk =   0.1280000
        k(   18) = (   0.2000000   0.6431162   0.4941807), wk =   0.1280000
        k(   19) = (   0.4000000   0.0000000   0.0000000), wk =   0.0320000
        k(   20) = (   0.4000000   0.0000000   0.2470903), wk =   0.0640000
        k(   21) = (   0.4000000   0.0000000   0.4941807), wk =   0.0640000
        k(   22) = (   0.4000000   0.3215581   0.0000000), wk =   0.0640000
        k(   23) = (   0.4000000   0.3215581   0.2470903), wk =   0.1280000
        k(   24) = (   0.4000000   0.3215581   0.4941807), wk =   0.1280000
        k(   25) = (   0.4000000   0.6431162   0.0000000), wk =   0.0640000
        k(   26) = (   0.4000000   0.6431162   0.2470903), wk =   0.1280000
        k(   27) = (   0.4000000   0.6431162   0.4941807), wk =   0.1280000

     Initial potential from superposition of free atoms

     starting charge   63.89162, renormalised to   64.00000
     Starting wfcs are   52 randomized atomic wfcs
     Checking if some PAW data can be deallocated...

     Self-consistent Calculation

     iteration #  1     ecut=    60.00 Ry     beta= 0.70
     Davidson diagonalization with overlap
     ethr =  1.00E-02,  avg # of iterations =  3.9

     total energy              =    -372.60955472 Ry
     estimated scf accuracy    <       1.30576667 Ry

[...]

     End of self-consistent calculation

          k = 0.0000 0.0000 0.0000 ( 21731 PWs)   bands (ev):

   -24.9253 -24.9212 -24.9196 -24.9185  -9.1558  -9.1058  -9.1057  -9.1003
    -9.0920  -9.0531  -9.0306  -9.0291  -9.0138  -9.0002  -8.9936  -8.9887
    -5.0247  -4.3472  -4.1911  -3.9739  -1.7870  -1.4620  -1.1482  -1.1424
    -1.1240  -1.0859  -0.9554  -0.7870  -0.7765  -0.6871  -0.6364  -0.4882
     4.6391   4.7131   5.2497   5.2518   5.3080   5.5160

[...]

     the Fermi energy is     2.7259 ev

!    total energy              =    -372.73833296 Ry
     estimated scf accuracy    <          2.8E-09 Ry
     smearing contrib. (-TS)   =       0.00000000 Ry
     internal energy E=F+TS    =    -372.73833296 Ry

     The total energy is F=E-TS. E is the sum of the following terms:
     one-electron contribution =     -79.02170800 Ry
     hartree contribution      =      53.39135713 Ry
     xc contribution           =     -51.41878994 Ry
     ewald contribution        =    -156.89534184 Ry
     one-center paw contrib.   =    -138.79385032 Ry

     convergence has been achieved in   7 iterations

     Forces acting on atoms (cartesian axes, Ry/au):

     atom    1 type  1   force =    -0.00000252    0.00000000    0.00004040
     atom    2 type  1   force =     0.00000252   -0.00000000    0.00004040
     atom    3 type  1   force =     0.00000252   -0.00000000   -0.00004040
     atom    4 type  1   force =    -0.00000252    0.00000000   -0.00004040
     atom    5 type  3   force =     0.00012264    0.00000000    0.00012982
     atom    6 type  3   force =    -0.00012264   -0.00000000    0.00012982
     atom    7 type  3   force =    -0.00012264    0.00000000   -0.00012982
     atom    8 type  3   force =     0.00012264   -0.00000000   -0.00012982
     atom    9 type  2   force =     0.00001702    0.00005354   -0.00001558
     atom   10 type  2   force =    -0.00001702    0.00005354   -0.00001558
     atom   11 type  2   force =    -0.00001702   -0.00005354   -0.00001558
     atom   12 type  2   force =    -0.00001702    0.00005354    0.00001558
     atom   13 type  2   force =    -0.00001702   -0.00005354    0.00001558
     atom   14 type  2   force =     0.00001702   -0.00005354    0.00001558
     atom   15 type  2   force =     0.00001702    0.00005354    0.00001558
     atom   16 type  2   force =     0.00001702   -0.00005354   -0.00001558
     atom   17 type  2   force =    -0.00023767    0.00000000    0.00034567
     atom   18 type  2   force =     0.00023767    0.00000000    0.00034567
[...]
Al            0.0620146600        0.2500000000        0.1862874928
Al            0.4379853400        0.7500000000        0.6862874928
Al            0.9379853400        0.7500000000        0.8137125072
Al            0.5620146600        0.2500000000        0.3137125072
H             0.0800260065        0.0258708647        0.3106988670
H             0.4199739935        0.5258708647        0.8106988670
H             0.4199739935        0.9741291353        0.8106988670
H             0.9199739935        0.5258708647        0.6893011330
H             0.9199739935        0.9741291353        0.6893011330
H             0.5800260065        0.4741291353        0.1893011330
H             0.5800260065        0.0258708647        0.1893011330
H             0.0800260065        0.4741291353        0.3106988670
H             0.0955087056        0.7500000000        0.8995779919
H             0.4044912944        0.2500000000        0.3995779919
H             0.9044912944        0.2500000000        0.1004220081
H             0.5955087056        0.7500000000        0.6004220081
H             0.1879419638        0.2500000000        0.0411531210
H             0.3120580362        0.7500000000        0.5411531210
H             0.8120580362        0.7500000000        0.9588468790
H             0.6879419638        0.2500000000        0.4588468790

     Writing output data file ./RbAlH4.save/
     NEW-OLD atomic charge density approx. for the potential
     extrapolated charge   63.89267, renormalised to   64.00000

[...]

     Energy error            =      7.8E-06 Ry
     Gradient error          =      3.4E-04 Ry/Bohr
     Cell gradient error     =      2.5E-01 kbar

     bfgs converged in  11 scf cycles and  10 bfgs steps
     (criteria: energy <  1.0E-04 Ry, force <  1.0E-03Ry/Bohr, cell <  5.0E-01kbar)

     End of BFGS Geometry Optimization

     Final enthalpy           =    -372.7404816054 Ry

     File ./RbAlH4.bfgs deleted, as requested
Begin final coordinates
     new unit-cell volume =   2902.02530 a.u.^3 (   430.03578 Ang^3 )
     density =      1.79908 g/cm^3

CELL_PARAMETERS (alat= 17.65461514)
   1.014289589   0.000000000   0.000000000
   0.000000000   0.632482125   0.000000000
   0.000000000   0.000000000   0.822084019

ATOMIC_POSITIONS (crystal)
Rb            0.1814675926        0.2500000000        0.6598759116
Rb            0.3185324074        0.7500000000        0.1598759116
Rb            0.8185324074        0.7500000000        0.3401240884
Rb            0.6814675926        0.2500000000        0.8401240884
Al            0.0620146600        0.2500000000        0.1862874928
Al            0.4379853400        0.7500000000        0.6862874928
Al            0.9379853400        0.7500000000        0.8137125072
Al            0.5620146600        0.2500000000        0.3137125072
H             0.0800260065        0.0258708647        0.3106988670
H             0.4199739935        0.5258708647        0.8106988670
H             0.4199739935        0.9741291353        0.8106988670
H             0.9199739935        0.5258708647        0.6893011330
H             0.9199739935        0.9741291353        0.6893011330
H             0.5800260065        0.4741291353        0.1893011330
H             0.5800260065        0.0258708647        0.1893011330
H             0.0800260065        0.4741291353        0.3106988670
H             0.0955087056        0.7500000000        0.8995779919
H             0.4044912944        0.2500000000        0.3995779919
H             0.9044912944        0.2500000000        0.1004220081
H             0.5955087056        0.7500000000        0.6004220081
H             0.1879419638        0.2500000000        0.0411531210
H             0.3120580362        0.7500000000        0.5411531210
H             0.8120580362        0.7500000000        0.9588468790
H             0.6879419638        0.2500000000        0.4588468790
End final coordinates

     Writing output data file ./RbAlH4.save/

     Final scf calculation at the relaxed structure.
     The G-vectors are recalculated for the final unit cell
     Results may differ from those at the preceding step.

     Using Slab Decomposition

     bravais-lattice index     =            0
     lattice parameter (alat)  =      17.6546  a.u.
     unit-cell volume          =    2902.0253 (a.u.)^3
     number of atoms/cell      =           24
     number of atomic types    =            3
     number of electrons       =        64.00
     number of Kohn-Sham states=           38
     kinetic-energy cutoff     =      60.0000  Ry
     charge density cutoff     =     240.0000  Ry
     scf convergence threshold =      1.0E-10
     mixing beta               =       0.7000
     number of iterations used =            8  plain     mixing
     press convergence thresh. =      5.0E-01
     Exchange-correlation= PBE
                           (   1   4   3   4   0   0   0)

     celldm(1)=  17.654615  celldm(2)=   0.000000  celldm(3)=   0.000000
     celldm(4)=   0.000000  celldm(5)=   0.000000  celldm(6)=   0.000000

     crystal axes: (cart. coord. in units of alat)
               a(1) = (   1.014290   0.000000   0.000000 )
               a(2) = (   0.000000   0.632482   0.000000 )
               a(3) = (   0.000000   0.000000   0.822084 )

     reciprocal axes: (cart. coord. in units 2 pi/alat)
               b(1) = (  0.985912  0.000000  0.000000 )
               b(2) = (  0.000000  1.581072  0.000000 )
               b(3) = (  0.000000  0.000000  1.216421 )

     PseudoPot. # 1 for Rb read from file:
     ./Rb_ONCV_PBE-1.0.oncvpsp.upf
     MD5 check sum: 55a5172d6bfbce6759a58e35d43f6aa9
     Pseudo is Norm-conserving, Zval =  9.0
     Generated using ONCVPSP code by D. R. Hamann
     Using radial grid of 2308 points,  6 beta functions with:
                l(1) =   0
                l(2) =   0
                l(3) =   1
                l(4) =   1
                l(5) =   2
                l(6) =   2

     PseudoPot. # 2 for H  read from file:
     ./H.pbe-rrkjus_psl.1.0.0.UPF
     MD5 check sum: f52b6d4d1c606e5624b1dc7b2218f220
     Pseudo is Ultrasoft, Zval =  1.0
     Generated using "atomic" code by A. Dal Corso  v.5.1
     Using radial grid of  929 points,  2 beta functions with:
                l(1) =   0
                l(2) =   0
     Q(r) pseudized with 0 coefficients

     PseudoPot. # 3 for Al read from file:
     ./Al.pbe-n-kjpaw_psl.1.0.0.UPF
     MD5 check sum: cfc449ca30b5f3223ec38ddd88ac046d
     Pseudo is Projector augmented-wave + core cor, Zval =  3.0
     Generated using "atomic" code by A. Dal Corso  v.5.1
     Shape of augmentation charge: PSQ
     Using radial grid of 1135 points,  6 beta functions with:
                l(1) =   0
                l(2) =   0
                l(3) =   1
                l(4) =   1
                l(5) =   2
                l(6) =   2
     Q(r) pseudized with 0 coefficients

     atomic species   valence    mass     pseudopotential
        Rb             9.00    85.46780     Rb( 1.00)
        H              1.00     1.00750     H ( 1.00)
        Al             3.00    26.98100     Al( 1.00)

      8 Sym. Ops., with inversion, found ( 6 have fractional translation)

   Cartesian axes

     site n.     atom                  positions (alat units)
         1           Rb  tau(   1) = (   0.1840607   0.1581205   0.5424734  )
         2           Rb  tau(   2) = (   0.3230841   0.4743616   0.1314314  )
         3           Rb  tau(   3) = (   0.8302289   0.4743616   0.2796106  )
         4           Rb  tau(   4) = (   0.6912055   0.1581205   0.6906526  )
         5           Al  tau(   5) = (   0.0629008   0.1581205   0.1531440  )
         6           Al  tau(   6) = (   0.4442440   0.4743616   0.5641860  )
         7           Al  tau(   7) = (   0.9513888   0.4743616   0.6689400  )
         8           Al  tau(   8) = (   0.5700456   0.1581205   0.2578980  )
         9           H   tau(   9) = (   0.0811695   0.0163629   0.2554206  )
        10           H   tau(  10) = (   0.4259752   0.3326039   0.6664626  )
        11           H   tau(  11) = (   0.4259752   0.6161193   0.6664626  )
        12           H   tau(  12) = (   0.9331200   0.3326039   0.5666634  )
        13           H   tau(  13) = (   0.9331200   0.6161193   0.5666634  )
        14           H   tau(  14) = (   0.5883143   0.2998782   0.1556214  )
        15           H   tau(  15) = (   0.5883143   0.0163629   0.1556214  )
        16           H   tau(  16) = (   0.0811695   0.2998782   0.2554206  )
        17           H   tau(  17) = (   0.0968735   0.4743616   0.7395287  )
        18           H   tau(  18) = (   0.4102713   0.1581205   0.3284867  )
        19           H   tau(  19) = (   0.9174161   0.1581205   0.0825553  )
        20           H   tau(  20) = (   0.6040183   0.4743616   0.4935973  )
        21           H   tau(  21) = (   0.1906276   0.1581205   0.0338313  )
        22           H   tau(  22) = (   0.3165172   0.4743616   0.4448733  )
        23           H   tau(  23) = (   0.8236620   0.4743616   0.7882527  )
        24           H   tau(  24) = (   0.6977724   0.1581205   0.3772107  )

     number of k points=    27  Marzari-Vanderbilt smearing, width (Ry)=  0.0050
                       cart. coord. in units 2pi/alat
        k(    1) = (   0.0000000   0.0000000   0.0000000), wk =   0.0160000
        k(    2) = (   0.0000000   0.0000000   0.2432841), wk =   0.0320000
        k(    3) = (   0.0000000   0.0000000   0.4865683), wk =   0.0320000
        k(    4) = (   0.0000000   0.3162145   0.0000000), wk =   0.0320000
        k(    5) = (   0.0000000   0.3162145   0.2432841), wk =   0.0640000
        k(    6) = (   0.0000000   0.3162145   0.4865683), wk =   0.0640000
        k(    7) = (   0.0000000   0.6324289   0.0000000), wk =   0.0320000
        k(    8) = (   0.0000000   0.6324289   0.2432841), wk =   0.0640000
        k(    9) = (   0.0000000   0.6324289   0.4865683), wk =   0.0640000
        k(   10) = (   0.1971823   0.0000000   0.0000000), wk =   0.0320000
        k(   11) = (   0.1971823   0.0000000   0.2432841), wk =   0.0640000
        k(   12) = (   0.1971823   0.0000000   0.4865683), wk =   0.0640000
        k(   13) = (   0.1971823   0.3162145   0.0000000), wk =   0.0640000
        k(   14) = (   0.1971823   0.3162145   0.2432841), wk =   0.1280000
        k(   15) = (   0.1971823   0.3162145   0.4865683), wk =   0.1280000
        k(   16) = (   0.1971823   0.6324289   0.0000000), wk =   0.0640000
        k(   17) = (   0.1971823   0.6324289   0.2432841), wk =   0.1280000
        k(   18) = (   0.1971823   0.6324289   0.4865683), wk =   0.1280000
        k(   19) = (   0.3943647   0.0000000   0.0000000), wk =   0.0320000
        k(   20) = (   0.3943647   0.0000000   0.2432841), wk =   0.0640000
        k(   21) = (   0.3943647   0.0000000   0.4865683), wk =   0.0640000
        k(   22) = (   0.3943647   0.3162145   0.0000000), wk =   0.0640000
        k(   23) = (   0.3943647   0.3162145   0.2432841), wk =   0.1280000
        k(   24) = (   0.3943647   0.3162145   0.4865683), wk =   0.1280000
        k(   25) = (   0.3943647   0.6324289   0.0000000), wk =   0.0640000
        k(   26) = (   0.3943647   0.6324289   0.2432841), wk =   0.1280000
        k(   27) = (   0.3943647   0.6324289   0.4865683), wk =   0.1280000

     Initial potential from superposition of free atoms

     starting charge   63.89162, renormalised to   64.00000
     Starting wfcs are   52 randomized atomic wfcs
     Checking if some PAW data can be deallocated...

     Self-consistent Calculation

     iteration #  1     ecut=    60.00 Ry     beta= 0.70
     Davidson diagonalization with overlap
     c_bands:  2 eigenvalues not converged
     c_bands:  3 eigenvalues not converged
     c_bands:  2 eigenvalues not converged
     c_bands:  1 eigenvalues not converged
     c_bands:  2 eigenvalues not converged
     c_bands:  2 eigenvalues not converged
     c_bands:  3 eigenvalues not converged
     c_bands:  1 eigenvalues not converged
     c_bands:  3 eigenvalues not converged
     c_bands:  2 eigenvalues not converged
     c_bands:  3 eigenvalues not converged
     c_bands:  3 eigenvalues not converged
     c_bands:  3 eigenvalues not converged
     c_bands:  4 eigenvalues not converged
     c_bands:  3 eigenvalues not converged
     c_bands:  3 eigenvalues not converged
     c_bands:  2 eigenvalues not converged
     c_bands:  3 eigenvalues not converged
     c_bands:  3 eigenvalues not converged
     c_bands:  3 eigenvalues not converged
     c_bands:  5 eigenvalues not converged
     c_bands:  3 eigenvalues not converged
     c_bands:  3 eigenvalues not converged
     c_bands:  2 eigenvalues not converged
     c_bands:  2 eigenvalues not converged
     c_bands:  3 eigenvalues not converged
     c_bands:  4 eigenvalues not converged
     ethr =  1.00E-06,  avg # of iterations = 20.0

[...]

     total energy              =    -372.74052989 Ry
     estimated scf accuracy    <          3.6E-10 Ry

     iteration # 10     ecut=    60.00 Ry     beta= 0.70
     Davidson diagonalization with overlap
     ethr =  5.60E-13,  avg # of iterations =  2.0

     End of self-consistent calculation

[...]

          k = 0.3944 0.6324 0.4866 ( 22797 PWs)   bands (ev):

   -25.2691 -25.2688 -25.2683 -25.2681  -9.4575  -9.4533  -9.4406  -9.4377
    -9.3959  -9.3895  -9.3697  -9.3652  -9.3518  -9.3496  -9.3463  -9.3443
    -4.5714  -4.5374  -4.4287  -4.4094  -1.8488  -1.8092  -1.6451  -1.6318
    -1.3307  -1.2834  -1.1894  -1.1747  -1.0278  -0.9942  -0.9177  -0.8860
     4.8461   4.9040   5.0010   5.1556   5.7207   5.7741

     the Fermi energy is     2.4036 ev

!    total energy              =    -372.74052989 Ry
     estimated scf accuracy    <          1.1E-11 Ry
     smearing contrib. (-TS)   =       0.00000000 Ry
     internal energy E=F+TS    =    -372.74052989 Ry

     The total energy is F=E-TS. E is the sum of the following terms:
     one-electron contribution =     -83.11687555 Ry
     hartree contribution      =      54.74406974 Ry
     xc contribution           =     -51.33957617 Ry
     ewald contribution        =    -154.23796126 Ry
     one-center paw contrib.   =    -138.79018666 Ry

     convergence has been achieved in  10 iterations

     Forces acting on atoms (cartesian axes, Ry/au):

     atom    1 type  1   force =     0.00021257   -0.00000000    0.00010933
     atom    2 type  1   force =    -0.00021257    0.00000000    0.00010933
     atom    3 type  1   force =    -0.00021257   -0.00000000   -0.00010933
     atom    4 type  1   force =     0.00021257    0.00000000   -0.00010933
     atom    5 type  3   force =    -0.00002777    0.00000000   -0.00012054
     atom    6 type  3   force =     0.00002777   -0.00000000   -0.00012054
     atom    7 type  3   force =     0.00002777    0.00000000    0.00012054
     atom    8 type  3   force =    -0.00002777   -0.00000000    0.00012054
     atom    9 type  2   force =    -0.00000233    0.00007880   -0.00002489
     atom   10 type  2   force =     0.00000233    0.00007880   -0.00002489
     atom   11 type  2   force =     0.00000233   -0.00007880   -0.00002489
     atom   12 type  2   force =     0.00000233    0.00007880    0.00002489
     atom   13 type  2   force =     0.00000233   -0.00007880    0.00002489
     atom   14 type  2   force =    -0.00000233   -0.00007880    0.00002489
     atom   15 type  2   force =    -0.00000233    0.00007880    0.00002489
     atom   16 type  2   force =    -0.00000233   -0.00007880   -0.00002489
     atom   17 type  2   force =     0.00009196    0.00000000    0.00034293
     atom   18 type  2   force =    -0.00009196    0.00000000    0.00034293
     atom   19 type  2   force =    -0.00009196    0.00000000   -0.00034293
     atom   20 type  2   force =     0.00009196   -0.00000000   -0.00034293
     atom   21 type  2   force =     0.00011135    0.00000000   -0.00019450
     atom   22 type  2   force =    -0.00011135    0.00000000   -0.00019450
     atom   23 type  2   force =    -0.00011135    0.00000000    0.00019450
     atom   24 type  2   force =     0.00011135    0.00000000    0.00019450

     Total force =     0.001024     Total SCF correction =     0.000002

     Computing stress (Cartesian axis) and pressure

          total   stress  (Ry/bohr**3)                   (kbar)     P=        0.00
  -0.00000080   0.00000000   0.00000000           -0.12        0.00        0.00
   0.00000000   0.00000187   0.00000000            0.00        0.28        0.00
   0.00000000   0.00000000  -0.00000105            0.00        0.00       -0.16

     Writing output data file ./RbAlH4.save/

     General routines

     Parallel routines

   This run was terminated on:  16:27:23  23Nov2023

   JOB DONE.