     Program PWSCF v.6.8 starts on 23Nov2023 at 16:57: 3

     R & G space division:  proc/nbgrp/npool/nimage =      12

     Reading input from input_cellopt.in

     Current dimensions of program PWSCF are:
     Max number of different atomic species (ntypx) = 10
     Max number of k-points (npk) =  40000
     Max angular momentum in pseudopotentials (lmaxx) =  4
     Message from routine volume:
     axis vectors are left-handed

     IMPORTANT: XC functional enforced from input :
     Exchange-correlation= PBE
                           (   1   4   3   4   0   0   0)
     Any further DFT definition will be discarded
     Please, verify this is what you really want

     Message from routine setup:
     using ibrav=0 with symmetry is DISCOURAGED, use correct ibrav instead

     Using Slab Decomposition

     bravais-lattice index     =            0
     lattice parameter (alat)  =      11.3538  a.u.
     unit-cell volume          =     365.8989 (a.u.)^3
     number of atoms/cell      =            2
     number of atomic types    =            2
     number of electrons       =        10.00
     number of Kohn-Sham states=            9
     kinetic-energy cutoff     =      60.0000  Ry
     charge density cutoff     =     240.0000  Ry
     scf convergence threshold =      1.0E-08
     mixing beta               =       0.7000
     number of iterations used =            8  plain     mixing
     energy convergence thresh.=      1.0E-04
     force convergence thresh. =      1.0E-03
     press convergence thresh. =      5.0E-01
     Exchange-correlation= PBE
                           (   1   4   3   4   0   0   0)
     nstep                     =           50

     celldm(1)=  11.353777  celldm(2)=   0.000000  celldm(3)=   0.000000
     celldm(4)=   0.000000  celldm(5)=   0.000000  celldm(6)=   0.000000

     crystal axes: (cart. coord. in units of alat)
               a(1) = (   0.500000   0.500000   0.000000 )
               a(2) = (   0.500000   0.000000   0.500000 )
               a(3) = (   0.000000   0.500000   0.500000 )

     reciprocal axes: (cart. coord. in units 2 pi/alat)
               b(1) = (  1.000000  1.000000 -1.000000 )
               b(2) = (  1.000000 -1.000000  1.000000 )
               b(3) = ( -1.000000  1.000000  1.000000 )

     PseudoPot. # 1 for H  read from file:
     ./H.pbe-rrkjus_psl.1.0.0.UPF
     MD5 check sum: f52b6d4d1c606e5624b1dc7b2218f220
     Pseudo is Ultrasoft, Zval =  1.0
     Generated using "atomic" code by A. Dal Corso  v.5.1
     Using radial grid of  929 points,  2 beta functions with:
                l(1) =   0
                l(2) =   0
     Q(r) pseudized with 0 coefficients

     PseudoPot. # 2 for Rb read from file:
     ./Rb_ONCV_PBE-1.0.oncvpsp.upf
     MD5 check sum: 55a5172d6bfbce6759a58e35d43f6aa9
     Pseudo is Norm-conserving, Zval =  9.0
     Generated using ONCVPSP code by D. R. Hamann
     Using radial grid of 2308 points,  6 beta functions with:
                l(1) =   0
                l(2) =   0
                l(3) =   1
                l(4) =   1
                l(5) =   2
                l(6) =   2

     atomic species   valence    mass     pseudopotential
        H              1.00     1.00750     H ( 1.00)
        Rb             9.00    85.46780     Rb( 1.00)

     48 Sym. Ops., with inversion, found

   Cartesian axes

     site n.     atom                  positions (alat units)
         1           Rb  tau(   1) = (   0.5000000   0.5000000   0.5000000  )
         2           H   tau(   2) = (   0.0000000   0.0000000   0.0000000  )

     number of k points=    10  Marzari-Vanderbilt smearing, width (Ry)=  0.0050
                       cart. coord. in units 2pi/alat
        k(    1) = (   0.0000000   0.0000000   0.0000000), wk =   0.0160000
        k(    2) = (  -0.2000000   0.2000000   0.2000000), wk =   0.1280000
        k(    3) = (  -0.4000000   0.4000000   0.4000000), wk =   0.1280000
        k(    4) = (   0.0000000   0.0000000   0.4000000), wk =   0.0960000
        k(    5) = (  -0.2000000   0.2000000   0.6000000), wk =   0.3840000
        k(    6) = (   0.6000000  -0.6000000  -0.2000000), wk =   0.3840000
        k(    7) = (   0.4000000  -0.4000000   0.0000000), wk =   0.1920000
        k(    8) = (   0.0000000   0.0000000   0.8000000), wk =   0.0960000
        k(    9) = (   0.8000000  -0.8000000   0.0000000), wk =   0.1920000
        k(   10) = (   1.0000000  -0.6000000  -0.2000000), wk =   0.3840000

     Initial potential from superposition of free atoms

     starting charge    9.97522, renormalised to   10.00000
     Starting wfcs are    6 randomized atomic wfcs +    3 random wfcs

     Self-consistent Calculation

     iteration #  1     ecut=    60.00 Ry     beta= 0.70
     Davidson diagonalization with overlap
     ethr =  1.00E-02,  avg # of iterations =  5.9

     total energy              =     -50.07769791 Ry
     estimated scf accuracy    <       0.15676457 Ry

[...]

     End of self-consistent calculation

          k = 0.0000 0.0000 0.0000 (  2837 PWs)   bands (ev):

   -23.9437  -7.8310  -7.8310  -7.8310   0.3403   8.9864   9.0723   9.0723
     9.0724

          k =-0.2000 0.2000 0.2000 (  2866 PWs)   bands (ev):

[...]

     the Fermi energy is     2.8535 ev

!    total energy              =     -50.11476964 Ry
     estimated scf accuracy    <          1.6E-09 Ry
     smearing contrib. (-TS)   =       0.00000000 Ry
     internal energy E=F+TS    =     -50.11476964 Ry

     The total energy is F=E-TS. E is the sum of the following terms:
     one-electron contribution =     -17.98761654 Ry
     hartree contribution      =      10.88691212 Ry
     xc contribution           =      -8.17333468 Ry
     ewald contribution        =     -34.84073055 Ry

     convergence has been achieved in   6 iterations

     Forces acting on atoms (cartesian axes, Ry/au):

     atom    1 type  2   force =     0.00000000   -0.00000000    0.00000000
     atom    2 type  1   force =     0.00000000    0.00000000    0.00000000

     Total force =     0.000000     Total SCF correction =     0.000000

     Computing stress (Cartesian axis) and pressure

          total   stress  (Ry/bohr**3)                   (kbar)     P=        2.54
   0.00001725   0.00000000   0.00000000            2.54        0.00        0.00
  -0.00000000   0.00001725   0.00000000           -0.00        2.54        0.00
   0.00000000  -0.00000000   0.00001725            0.00       -0.00        2.54

     BFGS Geometry Optimization
     Energy error            =      0.0E+00 Ry
     Gradient error          =      1.6E-32 Ry/Bohr
     Cell gradient error     =      2.5E+00 kbar

     number of scf cycles    =   1
     number of bfgs steps    =   0

     enthalpy           new  =     -50.1147696375 Ry

     new trust radius        =       0.0016500995 bohr
     Message from routine volume:
     axis vectors are left-handed
     new conv_thr            =       0.0000000100 Ry

     new unit-cell volume =    366.37254 a.u.^3 (    54.29081 Ang^3 )
     density =      2.64493 g/cm^3

CELL_PARAMETERS (alat= 11.35377691)
   0.500215660   0.500215660   0.000000000
   0.500215660   0.000000000   0.500215660
   0.000000000   0.500215660   0.500215660

ATOMIC_POSITIONS (crystal)
Rb            0.5000000000        0.5000000000        0.5000000000
H             0.0000000000        0.0000000000        0.0000000000

     Writing output data file ./RbH.save/
     NEW-OLD atomic charge density approx. for the potential
     extrapolated charge   10.01290, renormalised to   10.00000

[...]

     Threshold (ethr) on eigenvalues was too large:
     Diagonalizing with lowered threshold

     Davidson diagonalization with overlap
     ethr =  9.98E-08,  avg # of iterations =  1.0

[...]

     Energy error            =      7.8E-06 Ry
     Gradient error          =      8.2E-32 Ry/Bohr
     Cell gradient error     =      2.3E+00 kbar

[...]

     enthalpy           old  =     -50.1147696375 Ry
     enthalpy           new  =     -50.1147774698 Ry

     CASE: enthalpy          _new < enthalpy          _old

     WARNING: bfgs curvature condition failed, Theta= 0.874
     new trust radius        =       0.0018155009 bohr
     Message from routine volume:
     axis vectors are left-handed
     new conv_thr            =            1.0E-10 Ry

[...]

     Energy error            =      1.5E-05 Ry
     Gradient error          =      1.0E-30 Ry/Bohr
     Cell gradient error     =      9.5E-01 kbar

     number of scf cycles    =   6
     number of bfgs steps    =   5

     enthalpy           old  =     -50.1148101925 Ry
     enthalpy           new  =     -50.1148251815 Ry

     CASE: enthalpy          _new < enthalpy          _old

     new trust radius        =       0.0092086639 bohr
     Message from routine volume:
     axis vectors are left-handed
     new conv_thr            =            1.0E-10 Ry

     new unit-cell volume =    373.28966 a.u.^3 (    55.31582 Ang^3 )
     density =      2.59592 g/cm^3

[...]

ATOMIC_POSITIONS (crystal)
Rb            0.5000000000        0.5000000000        0.5000000000
H             0.0000000000       -0.0000000000        0.0000000000

     Writing output data file ./RbH.save/
     NEW-OLD atomic charge density approx. for the potential
     extrapolated charge   10.07123, renormalised to   10.00000

[...]

     Energy error            =      9.8E-06 Ry
     Gradient error          =      2.6E-31 Ry/Bohr
     Cell gradient error     =      1.3E-01 kbar
     Message from routine volume:
     axis vectors are left-handed

     bfgs converged in   7 scf cycles and   6 bfgs steps
     (criteria: energy <  1.0E-04 Ry, force <  1.0E-03Ry/Bohr, cell <  5.0E-01kbar)

     End of BFGS Geometry Optimization

     Final enthalpy           =     -50.1148350213 Ry

     File ./RbH.bfgs deleted, as requested
Begin final coordinates
     new unit-cell volume =    373.28966 a.u.^3 (    55.31582 Ang^3 )
     density =      2.59592 g/cm^3

CELL_PARAMETERS (alat= 11.35377691)
   0.503344078   0.503344078  -0.000000000
   0.503344078  -0.000000000   0.503344078
  -0.000000000   0.503344078   0.503344078

ATOMIC_POSITIONS (crystal)
Rb            0.5000000000        0.5000000000        0.5000000000
H             0.0000000000       -0.0000000000        0.0000000000
End final coordinates

     Writing output data file ./RbH.save/

     Final scf calculation at the relaxed structure.
     The G-vectors are recalculated for the final unit cell
     Results may differ from those at the preceding step.

     Using Slab Decomposition

     bravais-lattice index     =            0
     lattice parameter (alat)  =      11.3538  a.u.
     unit-cell volume          =     373.2897 (a.u.)^3
     number of atoms/cell      =            2
     number of atomic types    =            2
     number of electrons       =        10.00
     number of Kohn-Sham states=            9
     kinetic-energy cutoff     =      60.0000  Ry
     charge density cutoff     =     240.0000  Ry
     scf convergence threshold =      1.0E-10
     mixing beta               =       0.7000
     number of iterations used =            8  plain     mixing
     press convergence thresh. =      5.0E-01
     Exchange-correlation= PBE
                           (   1   4   3   4   0   0   0)

     celldm(1)=  11.353777  celldm(2)=   0.000000  celldm(3)=   0.000000
     celldm(4)=   0.000000  celldm(5)=   0.000000  celldm(6)=   0.000000

     crystal axes: (cart. coord. in units of alat)
               a(1) = (   0.503344   0.503344  -0.000000 )
               a(2) = (   0.503344  -0.000000   0.503344 )
               a(3) = (  -0.000000   0.503344   0.503344 )

     reciprocal axes: (cart. coord. in units 2 pi/alat)
               b(1) = (  0.993356  0.993356 -0.993356 )
               b(2) = (  0.993356 -0.993356  0.993356 )
               b(3) = ( -0.993356  0.993356  0.993356 )

     PseudoPot. # 1 for H  read from file:
     ./H.pbe-rrkjus_psl.1.0.0.UPF
     MD5 check sum: f52b6d4d1c606e5624b1dc7b2218f220
     Pseudo is Ultrasoft, Zval =  1.0
     Generated using "atomic" code by A. Dal Corso  v.5.1
     Using radial grid of  929 points,  2 beta functions with:
                l(1) =   0
                l(2) =   0
     Q(r) pseudized with 0 coefficients

     PseudoPot. # 2 for Rb read from file:
     ./Rb_ONCV_PBE-1.0.oncvpsp.upf
     MD5 check sum: 55a5172d6bfbce6759a58e35d43f6aa9
     Pseudo is Norm-conserving, Zval =  9.0
     Generated using ONCVPSP code by D. R. Hamann
     Using radial grid of 2308 points,  6 beta functions with:
                l(1) =   0
                l(2) =   0
                l(3) =   1
                l(4) =   1
                l(5) =   2
                l(6) =   2

     atomic species   valence    mass     pseudopotential
        H              1.00     1.00750     H ( 1.00)
        Rb             9.00    85.46780     Rb( 1.00)

     48 Sym. Ops., with inversion, found

   Cartesian axes

     site n.     atom                  positions (alat units)
         1           Rb  tau(   1) = (   0.5033441   0.5033441   0.5033441  )
         2           H   tau(   2) = (  -0.0000000   0.0000000  -0.0000000  )

     number of k points=    10  Marzari-Vanderbilt smearing, width (Ry)=  0.0050
                       cart. coord. in units 2pi/alat
        k(    1) = (   0.0000000   0.0000000   0.0000000), wk =   0.0160000
        k(    2) = (  -0.1986713   0.1986713   0.1986713), wk =   0.1280000
        k(    3) = (  -0.3973425   0.3973425   0.3973425), wk =   0.1280000
        k(    4) = (  -0.0000000   0.0000000   0.3973425), wk =   0.0960000
        k(    5) = (  -0.1986713   0.1986713   0.5960138), wk =   0.3840000
        k(    6) = (   0.5960138  -0.5960138  -0.1986713), wk =   0.3840000
        k(    7) = (   0.3973425  -0.3973425   0.0000000), wk =   0.1920000
        k(    8) = (  -0.0000000   0.0000000   0.7946850), wk =   0.0960000
        k(    9) = (   0.7946850  -0.7946850   0.0000000), wk =   0.1920000
        k(   10) = (   0.9933563  -0.5960138  -0.1986713), wk =   0.3840000

     Initial potential from superposition of free atoms

     starting charge    9.97522, renormalised to   10.00000
     Starting wfcs are    6 randomized atomic wfcs +    3 random wfcs

     Self-consistent Calculation

     iteration #  1     ecut=    60.00 Ry     beta= 0.70
     Davidson diagonalization with overlap
     c_bands:  1 eigenvalues not converged
     c_bands:  1 eigenvalues not converged
     ethr =  1.00E-06,  avg # of iterations = 16.3

[...]

     total energy              =     -50.11483603 Ry
     estimated scf accuracy    <          1.1E-10 Ry

     iteration #  8     ecut=    60.00 Ry     beta= 0.70
     Davidson diagonalization with overlap
     ethr =  1.13E-12,  avg # of iterations =  2.1

     End of self-consistent calculation

[...]

          k =-0.0000 0.0000 0.7947 (  2926 PWs)   bands (ev):

[...]

          k = 0.9934-0.5960-0.1987 (  2945 PWs)   bands (ev):

   -24.0410  -8.3299  -8.2145  -8.1191   1.6928   6.6395   6.9578   8.8301
    11.1308

     the Fermi energy is     2.6666 ev

!    total energy              =     -50.11483603 Ry
     estimated scf accuracy    <          8.0E-12 Ry
     smearing contrib. (-TS)   =       0.00000000 Ry
     internal energy E=F+TS    =     -50.11483603 Ry

     The total energy is F=E-TS. E is the sum of the following terms:
     one-electron contribution =     -18.35358764 Ry
     hartree contribution      =      11.01570950 Ry
     xc contribution           =      -8.16769946 Ry
     ewald contribution        =     -34.60925843 Ry

     convergence has been achieved in   8 iterations

     Forces acting on atoms (cartesian axes, Ry/au):

     atom    1 type  2   force =     0.00000000   -0.00000000    0.00000000
     atom    2 type  1   force =    -0.00000000    0.00000000   -0.00000000

     Total force =     0.000000     Total SCF correction =     0.000000

     Computing stress (Cartesian axis) and pressure

          total   stress  (Ry/bohr**3)                   (kbar)     P=        0.14
   0.00000092  -0.00000000   0.00000000            0.14       -0.00        0.00
  -0.00000000   0.00000092   0.00000000           -0.00        0.14        0.00
   0.00000000   0.00000000   0.00000092            0.00        0.00        0.14

     Writing output data file ./RbH.save/

     General routines

     Parallel routines

   This run was terminated on:  16:57:24  23Nov2023

   JOB DONE.