     Program PWSCF v.7.1 starts on  3Dec2023 at 15:25:58

     Reading input from AlH3_opt.in

     Current dimensions of program PWSCF are:
     Max number of different atomic species (ntypx) = 10
     Max number of k-points (npk) =  40000
     Max angular momentum in pseudopotentials (lmaxx) =  4

     File ./AlH3.update deleted, as requested

     File ./AlH3.bfgs deleted, as requested
     file Al.pbe-n-kjpaw_psl.1.0.0.UPF: wavefunction(s)  3S 3P renormalized

     IMPORTANT: XC functional enforced from input :
     Exchange-correlation= PBE
                           (   1   4   3   4   0   0   0)
     Any further DFT definition will be discarded
     Please, verify this is what you really want

     Found identity + (  0.0000 -0.5000 -0.5000) symmetry
     This is a supercell, fractional translations are disabled
     Message from routine setup:
     using ibrav=0 with symmetry is DISCOURAGED, use correct ibrav instead

     R & G space division:  proc/nbgrp/npool/nimage =      28
     Subspace diagonalization in iterative solution of the eigenvalue problem:
     a serial algorithm will be used

     Using Slab Decomposition

     bravais-lattice index     =            0
     lattice parameter (alat)  =      16.9673  a.u.
     unit-cell volume          =    4884.6897 (a.u.)^3
     number of atoms/cell      =           64
     number of atomic types    =            2
     number of electrons       =        96.00
     number of Kohn-Sham states=           58
     kinetic-energy cutoff     =      70.0000  Ry
     charge density cutoff     =     280.0000  Ry
     scf convergence threshold =      1.0E-08
     mixing beta               =       0.7000
     number of iterations used =            8  plain     mixing
     energy convergence thresh.=      1.0E-04
     force convergence thresh. =      1.0E-03
     press convergence thresh. =      5.0E-01
     Exchange-correlation= PBE
                           (   1   4   3   4   0   0   0)
     nstep                     =           50

     celldm(1)=  16.967284  celldm(2)=   0.000000  celldm(3)=   0.000000
     celldm(4)=   0.000000  celldm(5)=   0.000000  celldm(6)=   0.000000

     crystal axes: (cart. coord. in units of alat)
               a(1) = (   1.000000   0.000000   0.000000 )
               a(2) = (   0.000000   1.000000   0.000000 )
               a(3) = (   0.000000   0.000000   1.000000 )

     reciprocal axes: (cart. coord. in units 2 pi/alat)
               b(1) = (  1.000000  0.000000  0.000000 )
               b(2) = (  0.000000  1.000000  0.000000 )
               b(3) = (  0.000000  0.000000  1.000000 )

     PseudoPot. # 1 for H  read from file:
     /scratch/antwerpen/209/vsc20922/pseudos/H.pbe-rrkjus_psl.1.0.0.UPF
     MD5 check sum: f52b6d4d1c606e5624b1dc7b2218f220
     Pseudo is Ultrasoft, Zval =  1.0
     Generated using "atomic" code by A. Dal Corso  v.5.1
     Using radial grid of  929 points,  2 beta functions with:
                l(1) =   0
                l(2) =   0
     Q(r) pseudized with 0 coefficients

     PseudoPot. # 2 for Al read from file:
     /scratch/antwerpen/209/vsc20922/pseudos/Al.pbe-n-kjpaw_psl.1.0.0.UPF
     MD5 check sum: cfc449ca30b5f3223ec38ddd88ac046d
     Pseudo is Projector augmented-wave + core cor, Zval =  3.0
     Generated using "atomic" code by A. Dal Corso  v.5.1
     Shape of augmentation charge: PSQ
     Using radial grid of 1135 points,  6 beta functions with:
                l(1) =   0
                l(2) =   0
                l(3) =   1
                l(4) =   1
                l(5) =   2
                l(6) =   2
     Q(r) pseudized with 0 coefficients

     atomic species   valence    mass     pseudopotential
        H              1.00     1.00750     H ( 1.00)
        Al             3.00    26.98100     Al( 1.00)

     24 Sym. Ops. (no inversion) found

   Cartesian axes

     site n.     atom                  positions (alat units)
         1           Al  tau(   1) = (   0.1250000   0.3750000   0.3750000  )
         2           Al  tau(   2) = (   0.3750000   0.1250000   0.3750000  )
         3           Al  tau(   3) = (   0.3750000   0.8750000   0.6250000  )
         4           Al  tau(   4) = (   0.1250000   0.1250000   0.1250000  )
         5           Al  tau(   5) = (   0.1250000   0.8750000   0.8750000  )
         6           Al  tau(   6) = (   0.3750000   0.6250000   0.8750000  )
         7           Al  tau(   7) = (   0.3750000   0.3750000   0.1250000  )
         8           Al  tau(   8) = (   0.1250000   0.6250000   0.6250000  )
         9           Al  tau(   9) = (   0.6250000   0.3750000   0.8750000  )
        10           Al  tau(  10) = (   0.8750000   0.1250000   0.8750000  )
        11           Al  tau(  11) = (   0.8750000   0.8750000   0.1250000  )
        12           Al  tau(  12) = (   0.6250000   0.1250000   0.6250000  )
        13           Al  tau(  13) = (   0.6250000   0.8750000   0.3750000  )
        14           Al  tau(  14) = (   0.8750000   0.6250000   0.3750000  )
        15           Al  tau(  15) = (   0.8750000   0.3750000   0.6250000  )
        16           Al  tau(  16) = (   0.6250000   0.6250000   0.1250000  )
        17           H   tau(  17) = (   0.5000000   0.0000000   0.3050904  )
        18           H   tau(  18) = (   0.5000000   0.0000000   0.6949096  )
        19           H   tau(  19) = (   0.5000000   0.8050904   0.5000000  )
        20           H   tau(  20) = (   0.5000000   0.1949096   0.5000000  )
        21           H   tau(  21) = (   0.3050904   0.0000000   0.5000000  )
        22           H   tau(  22) = (   0.1949096   0.0000000   0.0000000  )
        23           H   tau(  23) = (   0.2500000   0.2500000   0.4449096  )
        24           H   tau(  24) = (   0.2500000   0.2500000   0.0550904  )
        25           H   tau(  25) = (   0.2500000   0.4449096   0.2500000  )
        26           H   tau(  26) = (   0.2500000   0.0550904   0.2500000  )
        27           H   tau(  27) = (   0.4449096   0.2500000   0.2500000  )
        28           H   tau(  28) = (   0.5550904   0.2500000   0.7500000  )
        29           H   tau(  29) = (   0.5000000   0.5000000   0.8050904  )
        30           H   tau(  30) = (   0.5000000   0.5000000   0.1949096  )
        31           H   tau(  31) = (   0.5000000   0.3050904   0.0000000  )
        32           H   tau(  32) = (   0.5000000   0.6949096   0.0000000  )
        33           H   tau(  33) = (   0.3050904   0.5000000   0.0000000  )
        34           H   tau(  34) = (   0.1949096   0.5000000   0.5000000  )
        35           H   tau(  35) = (   0.2500000   0.7500000   0.9449096  )
        36           H   tau(  36) = (   0.2500000   0.7500000   0.5550904  )
        37           H   tau(  37) = (   0.2500000   0.9449096   0.7500000  )
        38           H   tau(  38) = (   0.2500000   0.5550904   0.7500000  )
        39           H   tau(  39) = (   0.4449096   0.7500000   0.7500000  )
        40           H   tau(  40) = (   0.5550904   0.7500000   0.2500000  )
        41           H   tau(  41) = (   0.0000000   0.0000000   0.8050904  )
        42           H   tau(  42) = (   0.0000000   0.0000000   0.1949096  )
        43           H   tau(  43) = (   0.0000000   0.8050904   0.0000000  )
        44           H   tau(  44) = (   0.0000000   0.1949096   0.0000000  )
        45           H   tau(  45) = (   0.8050904   0.0000000   0.0000000  )
        46           H   tau(  46) = (   0.6949096   0.0000000   0.5000000  )
        47           H   tau(  47) = (   0.7500000   0.2500000   0.9449096  )
        48           H   tau(  48) = (   0.7500000   0.2500000   0.5550904  )
        49           H   tau(  49) = (   0.7500000   0.4449096   0.7500000  )
        50           H   tau(  50) = (   0.7500000   0.0550904   0.7500000  )
        51           H   tau(  51) = (   0.9449096   0.2500000   0.7500000  )
        52           H   tau(  52) = (   0.0550904   0.2500000   0.2500000  )
        53           H   tau(  53) = (   0.0000000   0.5000000   0.3050904  )
        54           H   tau(  54) = (   0.0000000   0.5000000   0.6949096  )
        55           H   tau(  55) = (   0.0000000   0.3050904   0.5000000  )
        56           H   tau(  56) = (   0.0000000   0.6949096   0.5000000  )
        57           H   tau(  57) = (   0.8050904   0.5000000   0.5000000  )
        58           H   tau(  58) = (   0.6949096   0.5000000   0.0000000  )
        59           H   tau(  59) = (   0.7500000   0.7500000   0.4449096  )
        60           H   tau(  60) = (   0.7500000   0.7500000   0.0550904  )
        61           H   tau(  61) = (   0.7500000   0.9449096   0.2500000  )
        62           H   tau(  62) = (   0.7500000   0.5550904   0.2500000  )
        63           H   tau(  63) = (   0.9449096   0.7500000   0.2500000  )
        64           H   tau(  64) = (   0.0550904   0.7500000   0.7500000  )

     number of k points=    20  Marzari-Vanderbilt smearing, width (Ry)=  0.0050
                       cart. coord. in units 2pi/alat
        k(    1) = (   0.0000000   0.0000000   0.0000000), wk =   0.0058309
        k(    2) = (   0.0000000   0.0000000   0.1428571), wk =   0.0349854
        k(    3) = (   0.0000000   0.0000000   0.2857143), wk =   0.0349854
        k(    4) = (   0.0000000   0.0000000   0.4285714), wk =   0.0349854
        k(    5) = (   0.0000000   0.1428571   0.1428571), wk =   0.0699708
        k(    6) = (   0.0000000   0.1428571   0.2857143), wk =   0.1399417
        k(    7) = (   0.0000000   0.1428571   0.4285714), wk =   0.1399417
        k(    8) = (   0.0000000   0.2857143   0.2857143), wk =   0.0699708
        k(    9) = (   0.0000000   0.2857143   0.4285714), wk =   0.1399417
        k(   10) = (   0.0000000   0.4285714   0.4285714), wk =   0.0699708
        k(   11) = (   0.1428571   0.1428571   0.1428571), wk =   0.0466472
        k(   12) = (   0.1428571   0.1428571   0.2857143), wk =   0.1399417
        k(   13) = (   0.1428571   0.1428571   0.4285714), wk =   0.1399417
        k(   14) = (   0.1428571   0.2857143   0.2857143), wk =   0.1399417
        k(   15) = (   0.1428571   0.2857143   0.4285714), wk =   0.2798834
        k(   16) = (   0.1428571   0.4285714   0.4285714), wk =   0.1399417
        k(   17) = (   0.2857143   0.2857143   0.2857143), wk =   0.0466472
        k(   18) = (   0.2857143   0.2857143   0.4285714), wk =   0.1399417
        k(   19) = (   0.2857143   0.4285714   0.4285714), wk =   0.1399417
        k(   20) = (   0.4285714   0.4285714   0.4285714), wk =   0.0466472

     Initial potential from superposition of free atoms

     starting charge      95.9629, renormalised to      96.0000
     Starting wfcs are  112 randomized atomic wfcs
     Checking if some PAW data can be deallocated...

     Self-consistent Calculation

     iteration #  1     ecut=    70.00 Ry     beta= 0.70
     Davidson diagonalization with overlap
     ethr =  1.00E-02,  avg # of iterations =  3.1

     total energy              =    -687.92087372 Ry
     estimated scf accuracy    <       2.82072399 Ry

[...]

     iteration #  3     ecut=    70.00 Ry     beta= 0.70
     Davidson diagonalization with overlap
[...]
     unit-cell volume          =    5028.9791 (a.u.)^3
     number of atoms/cell      =           64
     number of atomic types    =            2
     number of electrons       =        96.00
     number of Kohn-Sham states=           58
     kinetic-energy cutoff     =      70.0000  Ry
     charge density cutoff     =     280.0000  Ry
     scf convergence threshold =      1.0E-10
     mixing beta               =       0.7000
     number of iterations used =            8  plain     mixing
     press convergence thresh. =      5.0E-01
     Exchange-correlation= PBE
                           (   1   4   3   4   0   0   0)

     celldm(1)=  16.967284  celldm(2)=   0.000000  celldm(3)=   0.000000
     celldm(4)=   0.000000  celldm(5)=   0.000000  celldm(6)=   0.000000

     crystal axes: (cart. coord. in units of alat)
               a(1) = (   1.009751   0.000000   0.000000 )
               a(2) = (   0.000000   1.009751   0.000000 )
               a(3) = (   0.000000   0.000000   1.009751 )

     reciprocal axes: (cart. coord. in units 2 pi/alat)
               b(1) = (  0.990343  0.000000  0.000000 )
               b(2) = (  0.000000  0.990343  0.000000 )
               b(3) = (  0.000000  0.000000  0.990343 )

     PseudoPot. # 1 for H  read from file:
     /scratch/antwerpen/209/vsc20922/pseudos/H.pbe-rrkjus_psl.1.0.0.UPF
     MD5 check sum: f52b6d4d1c606e5624b1dc7b2218f220
     Pseudo is Ultrasoft, Zval =  1.0
     Generated using "atomic" code by A. Dal Corso  v.5.1
     Using radial grid of  929 points,  2 beta functions with:
                l(1) =   0
                l(2) =   0
     Q(r) pseudized with 0 coefficients

     PseudoPot. # 2 for Al read from file:
     /scratch/antwerpen/209/vsc20922/pseudos/Al.pbe-n-kjpaw_psl.1.0.0.UPF
     MD5 check sum: cfc449ca30b5f3223ec38ddd88ac046d
     Pseudo is Projector augmented-wave + core cor, Zval =  3.0
     Generated using "atomic" code by A. Dal Corso  v.5.1
     Shape of augmentation charge: PSQ
     Using radial grid of 1135 points,  6 beta functions with:
                l(1) =   0
                l(2) =   0
                l(3) =   1
                l(4) =   1
                l(5) =   2
                l(6) =   2
     Q(r) pseudized with 0 coefficients

     atomic species   valence    mass     pseudopotential
        H              1.00     1.00750     H ( 1.00)
        Al             3.00    26.98100     Al( 1.00)

     24 Sym. Ops. (no inversion) found

   Cartesian axes

     site n.     atom                  positions (alat units)
         1           Al  tau(   1) = (   0.1262189   0.3786566   0.3786566  )
         2           Al  tau(   2) = (   0.3786566   0.1262189   0.3786566  )
         3           Al  tau(   3) = (   0.3786566   0.8835321   0.6310944  )
         4           Al  tau(   4) = (   0.1262189   0.1262189   0.1262189  )
         5           Al  tau(   5) = (   0.1262189   0.8835321   0.8835321  )
         6           Al  tau(   6) = (   0.3786566   0.6310944   0.8835321  )
         7           Al  tau(   7) = (   0.3786566   0.3786566   0.1262189  )
         8           Al  tau(   8) = (   0.1262189   0.6310944   0.6310944  )
         9           Al  tau(   9) = (   0.6310944   0.3786566   0.8835321  )
        10           Al  tau(  10) = (   0.8835321   0.1262189   0.8835321  )
        11           Al  tau(  11) = (   0.8835321   0.8835321   0.1262189  )
        12           Al  tau(  12) = (   0.6310944   0.1262189   0.6310944  )
        13           Al  tau(  13) = (   0.6310944   0.8835321   0.3786566  )
        14           Al  tau(  14) = (   0.8835321   0.6310944   0.3786566  )
        15           Al  tau(  15) = (   0.8835321   0.3786566   0.6310944  )
        16           Al  tau(  16) = (   0.6310944   0.6310944   0.1262189  )
        17           H   tau(  17) = (   0.5048755   0.0000000   0.3075716  )
        18           H   tau(  18) = (   0.5048755   0.0000000   0.7021793  )
        19           H   tau(  19) = (   0.5048755   0.8124471   0.5048755  )
        20           H   tau(  20) = (   0.5048755   0.1973039   0.5048755  )
        21           H   tau(  21) = (   0.3075716  -0.0000000   0.5048755  )
        22           H   tau(  22) = (   0.1973039   0.0000000  -0.0000000  )
        23           H   tau(  23) = (   0.2524378   0.2524378   0.4497416  )
        24           H   tau(  24) = (   0.2524378   0.2524378   0.0551339  )
        25           H   tau(  25) = (   0.2524378   0.4497416   0.2524378  )
        26           H   tau(  26) = (   0.2524378   0.0551339   0.2524378  )
        27           H   tau(  27) = (   0.4497416   0.2524378   0.2524378  )
        28           H   tau(  28) = (   0.5600094   0.2524378   0.7573132  )
        29           H   tau(  29) = (   0.5048755   0.5048755   0.8124471  )
        30           H   tau(  30) = (   0.5048755   0.5048755   0.1973039  )
        31           H   tau(  31) = (   0.5048755   0.3075716   0.0000000  )
        32           H   tau(  32) = (   0.5048755   0.7021793   0.0000000  )
        33           H   tau(  33) = (   0.3075716   0.5048755  -0.0000000  )
        34           H   tau(  34) = (   0.1973039   0.5048755   0.5048755  )
        35           H   tau(  35) = (   0.2524378   0.7573132   0.9546171  )
        36           H   tau(  36) = (   0.2524378   0.7573132   0.5600094  )
        37           H   tau(  37) = (   0.2524378   0.9546171   0.7573132  )
        38           H   tau(  38) = (   0.2524378   0.5600094   0.7573132  )
        39           H   tau(  39) = (   0.4497416   0.7573132   0.7573132  )
        40           H   tau(  40) = (   0.5600094   0.7573132   0.2524378  )
        41           H   tau(  41) = (   0.0000000   0.0000000   0.8124471  )
        42           H   tau(  42) = (  -0.0000000   0.0000000   0.1973039  )
        43           H   tau(  43) = (   0.0000000   0.8124471  -0.0000000  )
        44           H   tau(  44) = (   0.0000000   0.1973039  -0.0000000  )
        45           H   tau(  45) = (   0.8124471  -0.0000000  -0.0000000  )
        46           H   tau(  46) = (   0.7021793   0.0000000   0.5048755  )
        47           H   tau(  47) = (   0.7573132   0.2524378   0.9546171  )
        48           H   tau(  48) = (   0.7573132   0.2524378   0.5600094  )
        49           H   tau(  49) = (   0.7573132   0.4497416   0.7573132  )
        50           H   tau(  50) = (   0.7573132   0.0551339   0.7573132  )
        51           H   tau(  51) = (   0.9546171   0.2524378   0.7573132  )
        52           H   tau(  52) = (   0.0551339   0.2524378   0.2524378  )
        53           H   tau(  53) = (   0.0000000   0.5048755   0.3075716  )
        54           H   tau(  54) = (   0.0000000   0.5048755   0.7021793  )
        55           H   tau(  55) = (  -0.0000000   0.3075716   0.5048755  )
        56           H   tau(  56) = (   0.0000000   0.7021793   0.5048755  )
        57           H   tau(  57) = (   0.8124471   0.5048755   0.5048755  )
        58           H   tau(  58) = (   0.7021793   0.5048755   0.0000000  )
        59           H   tau(  59) = (   0.7573132   0.7573132   0.4497416  )
        60           H   tau(  60) = (   0.7573132   0.7573132   0.0551339  )
        61           H   tau(  61) = (   0.7573132   0.9546171   0.2524378  )
        62           H   tau(  62) = (   0.7573132   0.5600094   0.2524378  )
        63           H   tau(  63) = (   0.9546171   0.7573132   0.2524378  )
        64           H   tau(  64) = (   0.0551339   0.7573132   0.7573132  )

     number of k points=    20  Marzari-Vanderbilt smearing, width (Ry)=  0.0050
                       cart. coord. in units 2pi/alat
        k(    1) = (   0.0000000   0.0000000   0.0000000), wk =   0.0058309
        k(    2) = (   0.0000000   0.0000000   0.1414776), wk =   0.0349854
        k(    3) = (   0.0000000   0.0000000   0.2829552), wk =   0.0349854
        k(    4) = (   0.0000000   0.0000000   0.4244328), wk =   0.0349854
        k(    5) = (   0.0000000   0.1414776   0.1414776), wk =   0.0699708
        k(    6) = (   0.0000000   0.1414776   0.2829552), wk =   0.1399417
        k(    7) = (   0.0000000   0.1414776   0.4244328), wk =   0.1399417
        k(    8) = (   0.0000000   0.2829552   0.2829552), wk =   0.0699708
        k(    9) = (   0.0000000   0.2829552   0.4244328), wk =   0.1399417
        k(   10) = (   0.0000000   0.4244328   0.4244328), wk =   0.0699708
        k(   11) = (   0.1414776   0.1414776   0.1414776), wk =   0.0466472
        k(   12) = (   0.1414776   0.1414776   0.2829552), wk =   0.1399417
        k(   13) = (   0.1414776   0.1414776   0.4244328), wk =   0.1399417
        k(   14) = (   0.1414776   0.2829552   0.2829552), wk =   0.1399417
        k(   15) = (   0.1414776   0.2829552   0.4244328), wk =   0.2798834
        k(   16) = (   0.1414776   0.4244328   0.4244328), wk =   0.1399417
        k(   17) = (   0.2829552   0.2829552   0.2829552), wk =   0.0466472
        k(   18) = (   0.2829552   0.2829552   0.4244328), wk =   0.1399417
        k(   19) = (   0.2829552   0.4244328   0.4244328), wk =   0.1399417
        k(   20) = (   0.4244328   0.4244328   0.4244328), wk =   0.0466472

     Initial potential from superposition of free atoms

     starting charge      95.9629, renormalised to      96.0000
     Starting wfcs are  112 randomized atomic wfcs
     Checking if some PAW data can be deallocated...

     Self-consistent Calculation

[...]

     iteration #  5     ecut=    70.00 Ry     beta= 0.70
     Davidson diagonalization with overlap
     c_bands:  1 eigenvalues not converged
     ethr =  2.37E-07,  avg # of iterations =  4.5

[...]

     total energy              =    -688.09748397 Ry
     estimated scf accuracy    <          8.4E-10 Ry

     iteration # 10     ecut=    70.00 Ry     beta= 0.70
     Davidson diagonalization with overlap
     ethr =  8.71E-13,  avg # of iterations =  4.0

     End of self-consistent calculation

[...]

          k = 0.4244 0.4244 0.4244 ( 49748 PWs)   bands (ev):

    -8.5904  -8.5258  -8.5258  -8.5258  -7.3038  -7.3038  -7.3038  -7.2116
    -5.6150  -5.6150  -5.6150  -5.5541  -5.5541  -5.5541  -5.5085  -5.5085
    -4.5315  -4.4359  -4.4359  -4.4359  -3.9694  -3.9694  -3.9460  -3.9460
    -3.9460  -3.9132  -3.9132  -3.9132  -2.5401  -2.5401  -2.5401  -2.5267
    -2.5267  -2.3825  -2.3825  -2.3825  -2.0703  -1.9159  -1.9159  -1.9159
    -1.5982  -1.5982  -1.5982  -1.5216  -1.5216  -1.5216  -1.4472  -1.4472
     3.2388   3.2388   3.2388   3.3245   4.2574   4.2633   4.2633   4.6101
     4.6111   4.6111

     the Fermi energy is     1.7701 ev

!    total energy              =    -688.09748397 Ry
     estimated scf accuracy    <          2.0E-11 Ry
     smearing contrib. (-TS)   =       0.00000000 Ry
     internal energy E=F+TS    =    -688.09748397 Ry

     The total energy is F=E-TS. E is the sum of the following terms:
     one-electron contribution =     -25.96265052 Ry
     hartree contribution      =      39.87461742 Ry
     xc contribution           =     -75.85201980 Ry
     ewald contribution        =     -71.46638990 Ry
     one-center paw contrib.   =    -554.69104115 Ry

     convergence has been achieved in  10 iterations

     Forces acting on atoms (cartesian axes, Ry/au):

     atom    1 type  2   force =     0.00000001   -0.00000000   -0.00000000
     atom    2 type  2   force =    -0.00000000    0.00000001   -0.00000000
     atom    3 type  2   force =    -0.00000000   -0.00000001    0.00000000
     atom    4 type  2   force =    -0.00000001   -0.00000001   -0.00000001
     atom    5 type  2   force =    -0.00000001    0.00000001    0.00000001
     atom    6 type  2   force =    -0.00000000    0.00000000   -0.00000001
     atom    7 type  2   force =    -0.00000000   -0.00000000    0.00000001
     atom    8 type  2   force =     0.00000001    0.00000000    0.00000000
     atom    9 type  2   force =     0.00000000   -0.00000000   -0.00000001
     atom   10 type  2   force =     0.00000001   -0.00000001    0.00000001
     atom   11 type  2   force =     0.00000001    0.00000001   -0.00000001
     atom   12 type  2   force =     0.00000000    0.00000001    0.00000000
     atom   13 type  2   force =     0.00000000   -0.00000001   -0.00000000
     atom   14 type  2   force =    -0.00000001    0.00000000   -0.00000000
     atom   15 type  2   force =    -0.00000001   -0.00000000    0.00000000
     atom   16 type  2   force =     0.00000000    0.00000000    0.00000001
     atom   17 type  1   force =     0.00000000    0.00000000    0.00070631
     atom   18 type  1   force =    -0.00000000    0.00000000   -0.00070631
     atom   19 type  1   force =    -0.00000000    0.00070630    0.00000000
     atom   20 type  1   force =     0.00000000   -0.00070630    0.00000000
     atom   21 type  1   force =     0.00070631    0.00000000    0.00000000
     atom   22 type  1   force =    -0.00070636    0.00000000    0.00000000
     atom   23 type  1   force =     0.00000000    0.00000000   -0.00070632
     atom   24 type  1   force =    -0.00000002   -0.00000002    0.00070635
     atom   25 type  1   force =     0.00000000   -0.00070632    0.00000000
     atom   26 type  1   force =    -0.00000002    0.00070635   -0.00000002
     atom   27 type  1   force =    -0.00070632    0.00000000    0.00000000
     atom   28 type  1   force =     0.00070632    0.00000000   -0.00000000
     atom   29 type  1   force =     0.00000000    0.00000000    0.00070630
     atom   30 type  1   force =    -0.00000000   -0.00000000   -0.00070630
     atom   31 type  1   force =     0.00000000    0.00070631    0.00000000
     atom   32 type  1   force =     0.00000000   -0.00070631   -0.00000000
     atom   33 type  1   force =     0.00070631    0.00000000    0.00000000
     atom   34 type  1   force =    -0.00070630    0.00000000    0.00000000
     atom   35 type  1   force =    -0.00000002    0.00000002   -0.00070635
     atom   36 type  1   force =     0.00000000   -0.00000000    0.00070632
     atom   37 type  1   force =    -0.00000002   -0.00070635    0.00000002
     atom   38 type  1   force =     0.00000000    0.00070632   -0.00000000
     atom   39 type  1   force =    -0.00070632   -0.00000000   -0.00000000
     atom   40 type  1   force =     0.00070632   -0.00000000    0.00000000
     atom   41 type  1   force =     0.00000000    0.00000000    0.00070636
     atom   42 type  1   force =     0.00000000    0.00000000   -0.00070636
     atom   43 type  1   force =     0.00000000    0.00070636    0.00000000
     atom   44 type  1   force =     0.00000000   -0.00070636    0.00000000
     atom   45 type  1   force =     0.00070636    0.00000000    0.00000000
     atom   46 type  1   force =    -0.00070631    0.00000000   -0.00000000
     atom   47 type  1   force =     0.00000002   -0.00000002   -0.00070635
     atom   48 type  1   force =    -0.00000000    0.00000000    0.00070632
     atom   49 type  1   force =    -0.00000000   -0.00070632   -0.00000000
     atom   50 type  1   force =     0.00000002    0.00070635    0.00000002
     atom   51 type  1   force =    -0.00070635   -0.00000002    0.00000002
     atom   52 type  1   force =     0.00070635   -0.00000002   -0.00000002
     atom   53 type  1   force =    -0.00000000    0.00000000    0.00070631
     atom   54 type  1   force =     0.00000000    0.00000000   -0.00070631
     atom   55 type  1   force =     0.00000000    0.00070631    0.00000000
     atom   56 type  1   force =     0.00000000   -0.00070631   -0.00000000
     atom   57 type  1   force =     0.00070630   -0.00000000    0.00000000
     atom   58 type  1   force =    -0.00070631    0.00000000    0.00000000
     atom   59 type  1   force =    -0.00000000   -0.00000000   -0.00070632
     atom   60 type  1   force =     0.00000002    0.00000002    0.00070635
     atom   61 type  1   force =     0.00000002   -0.00070635   -0.00000002
     atom   62 type  1   force =    -0.00000000    0.00070632    0.00000000
     atom   63 type  1   force =    -0.00070635    0.00000002   -0.00000002
     atom   64 type  1   force =     0.00070635    0.00000002    0.00000002

     Total force =     0.004894     Total SCF correction =     0.000001

     Computing stress (Cartesian axis) and pressure

          total   stress  (Ry/bohr**3)                   (kbar)     P=        0.25
   0.00000170   0.00000000   0.00000000            0.25        0.00        0.00
   0.00000000   0.00000170   0.00000000            0.00        0.25        0.00
   0.00000000   0.00000000   0.00000170            0.00        0.00        0.25

     Writing all to output data dir ./AlH3.save/

     General routines

     Parallel routines

   This run was terminated on:  15:36:43   3Dec2023

   JOB DONE.