     Program PWSCF v.7.1 starts on 30Nov2023 at 11:25:37

     Reading input from Cs5Al3H14.in

     Current dimensions of program PWSCF are:
     Max number of different atomic species (ntypx) = 10
     Max number of k-points (npk) =  40000
     Max angular momentum in pseudopotentials (lmaxx) =  4
     file Al.pbe-n-kjpaw_psl.1.0.0.UPF: wavefunction(s)  3S 3P renormalized

     IMPORTANT: XC functional enforced from input :
     Exchange-correlation= PBE
                           (   1   4   3   4   0   0   0)
     Any further DFT definition will be discarded
     Please, verify this is what you really want

     Message from routine setup:
     using ibrav=0 with symmetry is DISCOURAGED, use correct ibrav instead

     R & G space division:  proc/nbgrp/npool/nimage =      28
     Subspace diagonalization in iterative solution of the eigenvalue problem:
     a serial algorithm will be used

     Using Slab Decomposition

     bravais-lattice index     =            0
     lattice parameter (alat)  =      12.6114  a.u.
     unit-cell volume          =    3067.3055 (a.u.)^3
     number of atoms/cell      =           44
     number of atomic types    =            3
     number of electrons       =       136.00
     number of Kohn-Sham states=           82
     kinetic-energy cutoff     =      80.0000  Ry
     charge density cutoff     =     400.0000  Ry
     scf convergence threshold =      1.0E-08
     mixing beta               =       0.7000
     number of iterations used =            8  plain     mixing
     energy convergence thresh.=      1.0E-04
     force convergence thresh. =      1.0E-03
     press convergence thresh. =      5.0E-01
     Exchange-correlation= PBE
                           (   1   4   3   4   0   0   0)
     nstep                     =           50

     celldm(1)=  12.611352  celldm(2)=   0.000000  celldm(3)=   0.000000
     celldm(4)=   0.000000  celldm(5)=   0.000000  celldm(6)=   0.000000

     crystal axes: (cart. coord. in units of alat)
               a(1) = (   1.000000   0.000000   0.000000 )
               a(2) = (   0.000000   1.000000   0.000000 )
               a(3) = (   0.000000   0.000000   1.529228 )

     reciprocal axes: (cart. coord. in units 2 pi/alat)
               b(1) = (  1.000000  0.000000  0.000000 )
               b(2) = (  0.000000  1.000000  0.000000 )
               b(3) = (  0.000000  0.000000  0.653925 )

     PseudoPot. # 1 for H  read from file:
     /scratch/antwerpen/209/vsc20922/pseudos/H.pbe-rrkjus_psl.1.0.0.UPF
     MD5 check sum: f52b6d4d1c606e5624b1dc7b2218f220
     Pseudo is Ultrasoft, Zval =  1.0
     Generated using "atomic" code by A. Dal Corso  v.5.1
     Using radial grid of  929 points,  2 beta functions with:
                l(1) =   0
                l(2) =   0
     Q(r) pseudized with 0 coefficients

     PseudoPot. # 2 for Al read from file:
     /scratch/antwerpen/209/vsc20922/pseudos/Al.pbe-n-kjpaw_psl.1.0.0.UPF
     MD5 check sum: cfc449ca30b5f3223ec38ddd88ac046d
     Pseudo is Projector augmented-wave + core cor, Zval =  3.0
     Generated using "atomic" code by A. Dal Corso  v.5.1
     Shape of augmentation charge: PSQ
     Using radial grid of 1135 points,  6 beta functions with:
                l(1) =   0
                l(2) =   0
                l(3) =   1
                l(4) =   1
                l(5) =   2
                l(6) =   2
     Q(r) pseudized with 0 coefficients

     PseudoPot. # 3 for Cs read from file:
     /scratch/antwerpen/209/vsc20922/pseudos/Cs_pbe_v1.uspp.F.UPF
     MD5 check sum: 3476d69cb178dfad3ffaa59df4e07ca4
     Pseudo is Ultrasoft + core correction, Zval =  9.0
     Generated by new atomic code, or converted to UPF format
     Using radial grid of  905 points,  6 beta functions with:
                l(1) =   0
                l(2) =   0
                l(3) =   1
                l(4) =   1
                l(5) =   2
                l(6) =   2
     Q(r) pseudized with  6 coefficients,  rinner =    1.500   1.500   1.500
                                                       1.500   1.500

     atomic species   valence    mass     pseudopotential
        H              1.00     1.00750     H ( 1.00)
        Al             3.00    26.98100     Al( 1.00)
        Cs             9.00   132.90500     Cs( 1.00)

     16 Sym. Ops., with inversion, found ( 8 have fractional translation)

                                    s                        frac. trans.

      isym =  1     identity

 cryst.   s( 1) = (     1          0          0      )
                  (     0          1          0      )
                  (     0          0          1      )

 cart.    s( 1) = (  1.0000000  0.0000000  0.0000000 )
                  (  0.0000000  1.0000000  0.0000000 )
                  (  0.0000000  0.0000000  1.0000000 )

      isym =  2     180 deg rotation - cart. axis [0,0,1]

[...]

 cryst.   s( 3) = (    -1          0          0      )    f =(  0.5000000 )
                  (     0          1          0      )       (  0.5000000 )
                  (     0          0         -1      )       (  0.5000000 )

 cart.    s( 3) = ( -1.0000000  0.0000000  0.0000000 )    f =(  0.5000000 )
                  (  0.0000000  1.0000000  0.0000000 )       (  0.5000000 )
                  (  0.0000000  0.0000000 -1.0000000 )       (  0.7646138 )

[...]

      isym =  9     inversion

[...]

      isym = 10     inv. 180 deg rotation - cart. axis [0,0,1]

 cryst.   s(10) = (     1          0          0      )
                  (     0          1          0      )
                  (     0          0         -1      )

 cart.    s(10) = (  1.0000000  0.0000000  0.0000000 )
                  (  0.0000000  1.0000000  0.0000000 )
                  (  0.0000000  0.0000000 -1.0000000 )

[...]

 cryst.   s(11) = (     1          0          0      )    f =( -0.5000000 )
                  (     0         -1          0      )       (  0.5000000 )
                  (     0          0          1      )       ( -0.5000000 )

 cart.    s(11) = (  1.0000000  0.0000000  0.0000000 )    f =( -0.5000000 )
                  (  0.0000000 -1.0000000  0.0000000 )       (  0.5000000 )
                  (  0.0000000  0.0000000  1.0000000 )       ( -0.7646138 )

[...]

   Cartesian axes

     site n.     atom                  positions (alat units)
         1           Al  tau(   1) = (   0.0000000   0.5000000   0.0000000  )
         2           Al  tau(   2) = (   0.5000000   0.0000000   0.7646138  )
         3           Al  tau(   3) = (   0.0000000   0.5000000   0.7646138  )
         4           Al  tau(   4) = (   0.5000000   0.0000000   0.0000000  )
         5           Al  tau(   5) = (   0.0000000   0.0000000   0.0000000  )
         6           Al  tau(   6) = (   0.5000000   0.5000000   0.7646138  )
         7           Cs  tau(   7) = (   0.2126529   0.2873471   0.3823069  )
         8           Cs  tau(   8) = (   0.2873471   0.7873471   0.3823069  )
         9           Cs  tau(   9) = (   0.2873471   0.7873471   1.1469206  )
        10           Cs  tau(  10) = (   0.2126529   0.2873471   1.1469206  )
        11           Cs  tau(  11) = (   0.7873471   0.7126529   0.3823069  )
        12           Cs  tau(  12) = (   0.7873471   0.7126529   1.1469206  )
        13           Cs  tau(  13) = (   0.7126529   0.2126529   0.3823069  )
        14           Cs  tau(  14) = (   0.7126529   0.2126529   1.1469206  )
        15           Cs  tau(  15) = (   0.0000000   0.0000000   0.7646138  )
        16           Cs  tau(  16) = (   0.5000000   0.5000000   0.0000000  )
        17           H   tau(  17) = (   0.0437980   0.6799493   0.5849086  )
        18           H   tau(  18) = (   0.4562020   0.1799493   0.1797052  )
        19           H   tau(  19) = (   0.8200507   0.4562020   0.1797052  )
        20           H   tau(  20) = (   0.4562020   0.1799493   1.3495223  )
        21           H   tau(  21) = (   0.8200507   0.4562020   1.3495223  )
        22           H   tau(  22) = (   0.9562020   0.3200507   0.5849086  )
        23           H   tau(  23) = (   0.6799493   0.9562020   0.5849086  )
        24           H   tau(  24) = (   0.9562020   0.3200507   0.9443189  )
        25           H   tau(  25) = (   0.6799493   0.9562020   0.9443189  )
        26           H   tau(  26) = (   0.3200507   0.0437980   0.5849086  )
        27           H   tau(  27) = (   0.0437980   0.6799493   0.9443189  )
        28           H   tau(  28) = (   0.3200507   0.0437980   0.9443189  )
        29           H   tau(  29) = (   0.5437980   0.8200507   0.1797052  )
        30           H   tau(  30) = (   0.1799493   0.5437980   0.1797052  )
        31           H   tau(  31) = (   0.5437980   0.8200507   1.3495223  )
        32           H   tau(  32) = (   0.1799493   0.5437980   1.3495223  )
        33           H   tau(  33) = (   0.0751217   0.2476266   0.0000000  )
        34           H   tau(  34) = (   0.4248783   0.7476266   0.7646138  )
        35           H   tau(  35) = (   0.2523734   0.4248783   0.7646138  )
        36           H   tau(  36) = (   0.9248783   0.7523734   0.0000000  )
        37           H   tau(  37) = (   0.2476266   0.9248783   0.0000000  )
        38           H   tau(  38) = (   0.7523734   0.0751217   0.0000000  )
        39           H   tau(  39) = (   0.5751217   0.2523734   0.7646138  )
        40           H   tau(  40) = (   0.7476266   0.5751217   0.7646138  )
        41           H   tau(  41) = (   0.0000000   0.0000000   0.2607407  )
        42           H   tau(  42) = (   0.5000000   0.5000000   0.5038731  )
        43           H   tau(  43) = (   0.5000000   0.5000000   1.0253544  )
        44           H   tau(  44) = (   0.0000000   0.0000000   1.2684868  )

   Crystallographic axes

     site n.     atom                  positions (cryst. coord.)
         1           Al  tau(   1) = (  0.0000000  0.5000000  0.0000000  )
         2           Al  tau(   2) = (  0.5000000  0.0000000  0.5000000  )
         3           Al  tau(   3) = (  0.0000000  0.5000000  0.5000000  )
         4           Al  tau(   4) = (  0.5000000  0.0000000  0.0000000  )
         5           Al  tau(   5) = (  0.0000000  0.0000000  0.0000000  )
         6           Al  tau(   6) = (  0.5000000  0.5000000  0.5000000  )
         7           Cs  tau(   7) = (  0.2126529  0.2873471  0.2500000  )
         8           Cs  tau(   8) = (  0.2873471  0.7873471  0.2500000  )
         9           Cs  tau(   9) = (  0.2873471  0.7873471  0.7500000  )
        10           Cs  tau(  10) = (  0.2126529  0.2873471  0.7500000  )
        11           Cs  tau(  11) = (  0.7873471  0.7126529  0.2500000  )
        12           Cs  tau(  12) = (  0.7873471  0.7126529  0.7500000  )
        13           Cs  tau(  13) = (  0.7126529  0.2126529  0.2500000  )
        14           Cs  tau(  14) = (  0.7126529  0.2126529  0.7500000  )
        15           Cs  tau(  15) = (  0.0000000  0.0000000  0.5000000  )
        16           Cs  tau(  16) = (  0.5000000  0.5000000  0.0000000  )
        17           H   tau(  17) = (  0.0437980  0.6799493  0.3824863  )
[...]
     atom   43 type  1   force =    -0.00000000    0.00000000    0.11236129
     atom   44 type  1   force =    -0.00000000   -0.00000000   -0.11236129
     The local contribution  to forces
     atom    1 type  2   force =    -0.00000000    0.00000000    0.00000000
     atom    2 type  2   force =    -0.00000000    0.00000000   -0.00000000
     atom    3 type  2   force =    -0.00000000   -0.00000000   -0.00000000
     atom    4 type  2   force =     0.00000000    0.00000000    0.00000000
     atom    5 type  2   force =     0.00000000    0.00000000   -0.00000000
     atom    6 type  2   force =     0.00000000    0.00000000   -0.00000000
     atom    7 type  3   force =    -0.00185284    0.00185284   -0.00000000
     atom    8 type  3   force =     0.00185284    0.00185284   -0.00000000
     atom    9 type  3   force =     0.00185284    0.00185284    0.00000000
     atom   10 type  3   force =    -0.00185284    0.00185284    0.00000000
     atom   11 type  3   force =     0.00185284   -0.00185284   -0.00000000
     atom   12 type  3   force =     0.00185284   -0.00185284    0.00000000
     atom   13 type  3   force =    -0.00185284   -0.00185284   -0.00000000
     atom   14 type  3   force =    -0.00185284   -0.00185284    0.00000000
     atom   15 type  3   force =     0.00000000    0.00000000    0.00000000
     atom   16 type  3   force =     0.00000000    0.00000000   -0.00000000
     atom   17 type  1   force =    -0.09861139   -0.04418327    0.03701804
     atom   18 type  1   force =     0.09861139   -0.04418327   -0.03701804
     atom   19 type  1   force =     0.04418327    0.09861139   -0.03701804
     atom   20 type  1   force =     0.09861139   -0.04418327    0.03701804
     atom   21 type  1   force =     0.04418327    0.09861139    0.03701804
     atom   22 type  1   force =     0.09861139    0.04418327    0.03701804
     atom   23 type  1   force =    -0.04418327    0.09861139    0.03701804
     atom   24 type  1   force =     0.09861139    0.04418327   -0.03701804
     atom   25 type  1   force =    -0.04418327    0.09861139   -0.03701804
     atom   26 type  1   force =     0.04418327   -0.09861139    0.03701804
     atom   27 type  1   force =    -0.09861139   -0.04418327   -0.03701804
     atom   28 type  1   force =     0.04418327   -0.09861139   -0.03701804
     atom   29 type  1   force =    -0.09861139    0.04418327   -0.03701804
     atom   30 type  1   force =    -0.04418327   -0.09861139   -0.03701804
     atom   31 type  1   force =    -0.09861139    0.04418327    0.03701804
     atom   32 type  1   force =    -0.04418327   -0.09861139    0.03701804
     atom   33 type  1   force =    -0.02384402    0.00479508   -0.00000000
     atom   34 type  1   force =     0.02384402    0.00479508    0.00000000
     atom   35 type  1   force =    -0.00479508    0.02384402    0.00000000
     atom   36 type  1   force =     0.02384402   -0.00479508   -0.00000000
     atom   37 type  1   force =     0.00479508    0.02384402   -0.00000000
     atom   38 type  1   force =    -0.00479508   -0.02384402   -0.00000000
     atom   39 type  1   force =    -0.02384402   -0.00479508    0.00000000
     atom   40 type  1   force =     0.00479508   -0.02384402    0.00000000
     atom   41 type  1   force =     0.00000000    0.00000000   -0.09666695
     atom   42 type  1   force =     0.00000000    0.00000000    0.09666695
     atom   43 type  1   force =     0.00000000    0.00000000   -0.09666695
     atom   44 type  1   force =     0.00000000    0.00000000    0.09666695
     The core correction contribution to forces
     atom    1 type  2   force =    -0.00000000   -0.00000000    0.00000000
     atom    2 type  2   force =    -0.00000000    0.00000000   -0.00000000
     atom    3 type  2   force =    -0.00000000   -0.00000000   -0.00000000
     atom    4 type  2   force =    -0.00000000    0.00000000    0.00000000
     atom    5 type  2   force =     0.00000000    0.00000000    0.00000000
     atom    6 type  2   force =    -0.00000000   -0.00000000   -0.00000000
     atom    7 type  3   force =    -0.00045777    0.00045777    0.00000000
     atom    8 type  3   force =     0.00045777    0.00045777    0.00000000
     atom    9 type  3   force =     0.00045777    0.00045777   -0.00000000
     atom   10 type  3   force =    -0.00045777    0.00045777   -0.00000000
     atom   11 type  3   force =     0.00045777   -0.00045777    0.00000000
     atom   12 type  3   force =     0.00045777   -0.00045777   -0.00000000
     atom   13 type  3   force =    -0.00045777   -0.00045777    0.00000000
     atom   14 type  3   force =    -0.00045777   -0.00045777   -0.00000000
     atom   15 type  3   force =     0.00000000   -0.00000000   -0.00000000
     atom   16 type  3   force =    -0.00000000   -0.00000000    0.00000000
     atom   17 type  1   force =     0.00000000    0.00000000    0.00000000
     atom   18 type  1   force =     0.00000000    0.00000000    0.00000000
     atom   19 type  1   force =     0.00000000    0.00000000    0.00000000
     atom   20 type  1   force =     0.00000000    0.00000000    0.00000000
     atom   21 type  1   force =     0.00000000    0.00000000    0.00000000
     atom   22 type  1   force =     0.00000000    0.00000000    0.00000000
     atom   23 type  1   force =     0.00000000    0.00000000    0.00000000
     atom   24 type  1   force =     0.00000000    0.00000000    0.00000000
     atom   25 type  1   force =     0.00000000    0.00000000    0.00000000
     atom   26 type  1   force =     0.00000000    0.00000000    0.00000000
     atom   27 type  1   force =     0.00000000    0.00000000    0.00000000
     atom   28 type  1   force =     0.00000000    0.00000000    0.00000000
     atom   29 type  1   force =     0.00000000    0.00000000    0.00000000
     atom   30 type  1   force =     0.00000000    0.00000000    0.00000000
     atom   31 type  1   force =     0.00000000    0.00000000    0.00000000
     atom   32 type  1   force =     0.00000000    0.00000000    0.00000000
     atom   33 type  1   force =     0.00000000    0.00000000    0.00000000
     atom   34 type  1   force =     0.00000000    0.00000000    0.00000000
     atom   35 type  1   force =     0.00000000    0.00000000    0.00000000
     atom   36 type  1   force =     0.00000000    0.00000000    0.00000000
     atom   37 type  1   force =     0.00000000    0.00000000    0.00000000
     atom   38 type  1   force =     0.00000000    0.00000000    0.00000000
     atom   39 type  1   force =     0.00000000    0.00000000    0.00000000
     atom   40 type  1   force =     0.00000000    0.00000000    0.00000000
     atom   41 type  1   force =     0.00000000    0.00000000    0.00000000
     atom   42 type  1   force =     0.00000000    0.00000000    0.00000000
     atom   43 type  1   force =     0.00000000    0.00000000    0.00000000
     atom   44 type  1   force =     0.00000000    0.00000000    0.00000000
     The Hubbard contrib.    to forces
     atom    1 type  2   force =     0.00000000    0.00000000    0.00000000
     atom    2 type  2   force =     0.00000000    0.00000000    0.00000000
     atom    3 type  2   force =     0.00000000    0.00000000    0.00000000
     atom    4 type  2   force =     0.00000000    0.00000000    0.00000000
     atom    5 type  2   force =     0.00000000    0.00000000    0.00000000
     atom    6 type  2   force =     0.00000000    0.00000000    0.00000000
     atom    7 type  3   force =     0.00000000    0.00000000    0.00000000
     atom    8 type  3   force =     0.00000000    0.00000000    0.00000000
     atom    9 type  3   force =     0.00000000    0.00000000    0.00000000
     atom   10 type  3   force =     0.00000000    0.00000000    0.00000000
     atom   11 type  3   force =     0.00000000    0.00000000    0.00000000
     atom   12 type  3   force =     0.00000000    0.00000000    0.00000000
     atom   13 type  3   force =     0.00000000    0.00000000    0.00000000
     atom   14 type  3   force =     0.00000000    0.00000000    0.00000000
     atom   15 type  3   force =     0.00000000    0.00000000    0.00000000
     atom   16 type  3   force =     0.00000000    0.00000000    0.00000000
     atom   17 type  1   force =     0.00000000    0.00000000    0.00000000
     atom   18 type  1   force =     0.00000000    0.00000000    0.00000000
     atom   19 type  1   force =     0.00000000    0.00000000    0.00000000
     atom   20 type  1   force =     0.00000000    0.00000000    0.00000000
     atom   21 type  1   force =     0.00000000    0.00000000    0.00000000
     atom   22 type  1   force =     0.00000000    0.00000000    0.00000000
     atom   23 type  1   force =     0.00000000    0.00000000    0.00000000
     atom   24 type  1   force =     0.00000000    0.00000000    0.00000000
     atom   25 type  1   force =     0.00000000    0.00000000    0.00000000
     atom   26 type  1   force =     0.00000000    0.00000000    0.00000000
     atom   27 type  1   force =     0.00000000    0.00000000    0.00000000
     atom   28 type  1   force =     0.00000000    0.00000000    0.00000000
     atom   29 type  1   force =     0.00000000    0.00000000    0.00000000
     atom   30 type  1   force =     0.00000000    0.00000000    0.00000000
     atom   31 type  1   force =     0.00000000    0.00000000    0.00000000
     atom   32 type  1   force =     0.00000000    0.00000000    0.00000000
     atom   33 type  1   force =     0.00000000    0.00000000    0.00000000
     atom   34 type  1   force =     0.00000000    0.00000000    0.00000000
     atom   35 type  1   force =     0.00000000    0.00000000    0.00000000
     atom   36 type  1   force =     0.00000000    0.00000000    0.00000000
     atom   37 type  1   force =     0.00000000    0.00000000    0.00000000
     atom   38 type  1   force =     0.00000000    0.00000000    0.00000000
     atom   39 type  1   force =     0.00000000    0.00000000    0.00000000
     atom   40 type  1   force =     0.00000000    0.00000000    0.00000000
     atom   41 type  1   force =     0.00000000    0.00000000    0.00000000
     atom   42 type  1   force =     0.00000000    0.00000000    0.00000000
     atom   43 type  1   force =     0.00000000    0.00000000    0.00000000
     atom   44 type  1   force =     0.00000000    0.00000000    0.00000000
     The SCF correction term to forces
     atom    1 type  2   force =    -0.00000000   -0.00000000    0.00000000
     atom    2 type  2   force =     0.00000000    0.00000000   -0.00000000
     atom    3 type  2   force =    -0.00000000   -0.00000000    0.00000000
     atom    4 type  2   force =    -0.00000000   -0.00000000    0.00000000
     atom    5 type  2   force =    -0.00000000   -0.00000000    0.00000000
     atom    6 type  2   force =     0.00000000   -0.00000000   -0.00000000
     atom    7 type  3   force =     0.00000005   -0.00000005    0.00000000
     atom    8 type  3   force =    -0.00000005   -0.00000005    0.00000000
     atom    9 type  3   force =    -0.00000005   -0.00000005   -0.00000000
     atom   10 type  3   force =     0.00000005   -0.00000005   -0.00000000
     atom   11 type  3   force =    -0.00000005    0.00000005    0.00000000
     atom   12 type  3   force =    -0.00000005    0.00000005   -0.00000000
     atom   13 type  3   force =     0.00000005    0.00000005    0.00000000
     atom   14 type  3   force =     0.00000005    0.00000005   -0.00000000
     atom   15 type  3   force =    -0.00000000    0.00000000   -0.00000000
     atom   16 type  3   force =     0.00000000   -0.00000000    0.00000000
     atom   17 type  1   force =     0.00000000   -0.00000005   -0.00000016
     atom   18 type  1   force =    -0.00000000   -0.00000005    0.00000016
     atom   19 type  1   force =     0.00000005   -0.00000000    0.00000016
     atom   20 type  1   force =    -0.00000000   -0.00000005   -0.00000016
     atom   21 type  1   force =     0.00000005   -0.00000000   -0.00000016
     atom   22 type  1   force =    -0.00000000    0.00000005   -0.00000016
     atom   23 type  1   force =    -0.00000005   -0.00000000   -0.00000016
     atom   24 type  1   force =    -0.00000000    0.00000005    0.00000016
     atom   25 type  1   force =    -0.00000005   -0.00000000    0.00000016
     atom   26 type  1   force =     0.00000005    0.00000000   -0.00000016
     atom   27 type  1   force =     0.00000000   -0.00000005    0.00000016
     atom   28 type  1   force =     0.00000005    0.00000000    0.00000016
     atom   29 type  1   force =     0.00000000    0.00000005    0.00000016
     atom   30 type  1   force =    -0.00000005    0.00000000    0.00000016
     atom   31 type  1   force =     0.00000000    0.00000005   -0.00000016
     atom   32 type  1   force =    -0.00000005    0.00000000   -0.00000016
     atom   33 type  1   force =     0.00000001    0.00000027    0.00000000
     atom   34 type  1   force =    -0.00000001    0.00000027    0.00000000
     atom   35 type  1   force =    -0.00000027   -0.00000001   -0.00000000
     atom   36 type  1   force =    -0.00000001   -0.00000027    0.00000000
     atom   37 type  1   force =     0.00000027   -0.00000001    0.00000000
     atom   38 type  1   force =    -0.00000027    0.00000001    0.00000000
     atom   39 type  1   force =     0.00000001   -0.00000027    0.00000000
     atom   40 type  1   force =     0.00000027    0.00000001    0.00000000
     atom   41 type  1   force =     0.00000000    0.00000000    0.00000046
     atom   42 type  1   force =     0.00000000   -0.00000000   -0.00000046
     atom   43 type  1   force =    -0.00000000    0.00000000    0.00000046
     atom   44 type  1   force =    -0.00000000   -0.00000000   -0.00000046

     Total force =     0.001381     Total SCF correction =     0.000001

     Computing stress (Cartesian axis) and pressure

          total   stress  (Ry/bohr**3)                   (kbar)     P=        0.18
   0.00000031   0.00000000   0.00000000            0.05        0.00        0.00
   0.00000000   0.00000031   0.00000000            0.00        0.05        0.00
   0.00000000   0.00000000   0.00000311            0.00        0.00        0.46

     kinetic stress (kbar)   2968.15      0.00      0.00
                                0.00   2968.15      0.00
                                0.00      0.00   2994.41

     local   stress (kbar)  -2936.63     -0.00     -0.00
                               -0.00  -2936.63     -0.00
                               -0.00     -0.00  -2633.48

     nonloc. stress (kbar)   4208.04      0.00      0.00
                                0.00   4208.04      0.00
                                0.00      0.00   4216.63

     hartree stress (kbar)    651.14     -0.00     -0.00
                               -0.00    651.14      0.00
                               -0.00      0.00    524.66

     exc-cor stress (kbar)   5736.38     -0.00      0.00
                               -0.00   5736.38     -0.00
                                0.00     -0.00   5737.59

     corecor stress (kbar)  -7024.11     -0.00      0.00
                               -0.00  -7024.11      0.00
                                0.00      0.00  -7027.02

     ewald   stress (kbar)  -3602.93     -0.00     -0.00
                               -0.00  -3602.93     -0.00
                               -0.00     -0.00  -3812.34

     hubbard stress (kbar)      0.00      0.00      0.00
                                0.00      0.00      0.00
                                0.00      0.00      0.00

     DFT-D   stress (kbar)      0.00      0.00      0.00
                                0.00      0.00      0.00
                                0.00      0.00      0.00

     XDM     stress (kbar)      0.00      0.00      0.00
                                0.00      0.00      0.00
                                0.00      0.00      0.00

     dft-nl  stress (kbar)      0.00      0.00      0.00
                                0.00      0.00      0.00
                                0.00      0.00      0.00

     TS-vdW  stress (kbar)      0.00      0.00      0.00
                                0.00      0.00      0.00
                                0.00      0.00      0.00

     MDB     stress (kbar)      0.00      0.00      0.00
                                0.00      0.00      0.00
                                0.00      0.00      0.00

     3D-RISM stress (kbar)      0.00      0.00      0.00
                                0.00      0.00      0.00
                                0.00      0.00      0.00

     Writing all to output data dir ./Cs5Al3H14.save/

     General routines

     Parallel routines

     PAW routines

   This run was terminated on:  13:29: 3  30Nov2023

   JOB DONE.