     Program PWSCF v.6.7MaX starts on 26Nov2023 at 18:19: 5

     R & G space division:  proc/nbgrp/npool/nimage =       8
     Reading input from optgeo.in

     Current dimensions of program PWSCF are:
     Max number of different atomic species (ntypx) = 10
     Max number of k-points (npk) =  40000
     Max angular momentum in pseudopotentials (lmaxx) =  3
     file Al.pbe-n-kjpaw_psl.1.0.0.UPF: wavefunction(s)  3S 3P renormalized

     IMPORTANT: XC functional enforced from input :
     Exchange-correlation= PBE
                           (   1   4   3   4   0   0   0)
     Any further DFT definition will be discarded
     Please, verify this is what you really want

     Found symmetry operation: I + ( -0.5000 -0.5000 -0.5000)
     This is a supercell, fractional translations are disabled
     Message from routine setup:
     using ibrav=0 with symmetry is DISCOURAGED, use correct ibrav instead

     bravais-lattice index     =            0
     lattice parameter (alat)  =      10.3643  a.u.
     unit-cell volume          =    2855.0919 (a.u.)^3
     number of atoms/cell      =           24
     number of atomic types    =            3
     number of electrons       =        64.00
     number of Kohn-Sham states=           38
     kinetic-energy cutoff     =      80.0000  Ry
     charge density cutoff     =     400.0000  Ry
     scf convergence threshold =      1.0E-08
     mixing beta               =       0.7000
     number of iterations used =            8  plain     mixing
     energy convergence thresh.=      1.0E-04
     force convergence thresh. =      1.0E-03
     press convergence thresh. =      5.0E-01
     Exchange-correlation= PBE
                           (   1   4   3   4   0   0   0)
     nstep                     =           50

     celldm(1)=  10.364317  celldm(2)=   0.000000  celldm(3)=   0.000000
     celldm(4)=   0.000000  celldm(5)=   0.000000  celldm(6)=   0.000000

     crystal axes: (cart. coord. in units of alat)
               a(1) = (   1.000000   0.000000   0.000000 )
               a(2) = (   0.000000   1.000000   0.000000 )
               a(3) = (   0.000000   0.000000   2.564472 )

     reciprocal axes: (cart. coord. in units 2 pi/alat)
               b(1) = (  1.000000  0.000000  0.000000 )
               b(2) = (  0.000000  1.000000  0.000000 )
               b(3) = (  0.000000  0.000000  0.389944 )

     PseudoPot. # 1 for H  read from file:
     /home/thibautdhomme/PseudoLib/H.pbe-rrkjus_psl.1.0.0.UPF
     MD5 check sum: f52b6d4d1c606e5624b1dc7b2218f220
     Pseudo is Ultrasoft, Zval =  1.0
     Generated using "atomic" code by A. Dal Corso  v.5.1
     Using radial grid of  929 points,  2 beta functions with:
                l(1) =   0
                l(2) =   0
     Q(r) pseudized with 0 coefficients

     PseudoPot. # 2 for Al read from file:
     /home/thibautdhomme/PseudoLib/Al.pbe-n-kjpaw_psl.1.0.0.UPF
     MD5 check sum: cfc449ca30b5f3223ec38ddd88ac046d
     Pseudo is Projector augmented-wave + core cor, Zval =  3.0
     Generated using "atomic" code by A. Dal Corso  v.5.1
     Shape of augmentation charge: PSQ
     Using radial grid of 1135 points,  6 beta functions with:
                l(1) =   0
                l(2) =   0
                l(3) =   1
                l(4) =   1
                l(5) =   2
                l(6) =   2
     Q(r) pseudized with 0 coefficients

     PseudoPot. # 3 for Cs read from file:
     /home/thibautdhomme/PseudoLib/Cs_pbe_v1.uspp.F.UPF
     MD5 check sum: 3476d69cb178dfad3ffaa59df4e07ca4
     Pseudo is Ultrasoft + core correction, Zval =  9.0
     Generated by new atomic code, or converted to UPF format
     Using radial grid of  905 points,  6 beta functions with:
                l(1) =   0
                l(2) =   0
                l(3) =   1
                l(4) =   1
                l(5) =   2
                l(6) =   2
     Q(r) pseudized with  6 coefficients,  rinner =    1.500   1.500   1.500
                                                       1.500   1.500

     atomic species   valence    mass     pseudopotential
        H              1.00     1.00750     H ( 1.00)
        Al             3.00    26.98100     Al( 1.00)
        Cs             9.00   132.90500     Cs( 1.00)

      8 Sym. Ops. (no inversion) found

                                    s                        frac. trans.

      isym =  1     identity

 cryst.   s( 1) = (     1          0          0      )
                  (     0          1          0      )
                  (     0          0          1      )

 cart.    s( 1) = (  1.0000000  0.0000000  0.0000000 )
                  (  0.0000000  1.0000000  0.0000000 )
                  (  0.0000000  0.0000000  1.0000000 )

      isym =  2     180 deg rotation - cart. axis [0,0,1]

[...]

      isym =  5     inv. 180 deg rotation - cart. axis [0,1,0]

[...]

   Cartesian axes

     site n.     atom                  positions (alat units)
         1           Al  tau(   1) = (   0.0000000   0.0000000   0.0000000  )
         2           Al  tau(   2) = (   0.0000000   0.5000000   0.6411181  )
         3           Al  tau(   3) = (   0.5000000   0.5000000   1.2822361  )
         4           Al  tau(   4) = (   0.5000000   0.0000000   1.9233542  )
         5           Cs  tau(   5) = (   0.5000000   0.5000000   0.0000000  )
         6           Cs  tau(   6) = (   0.5000000   0.0000000   0.6411181  )
         7           Cs  tau(   7) = (   0.0000000   0.0000000   1.2822361  )
         8           Cs  tau(   8) = (   0.0000000   0.5000000   1.9233542  )
         9           H   tau(   9) = (   0.2462658   0.0000000   0.1667318  )
        10           H   tau(  10) = (   0.7537342   0.0000000   0.1667318  )
        11           H   tau(  11) = (   0.2462658   0.5000000   0.4743863  )
        12           H   tau(  12) = (   0.7537342   0.5000000   0.4743863  )
        13           H   tau(  13) = (   0.0000000   0.2537342   0.8078499  )
        14           H   tau(  14) = (   0.0000000   0.7462658   0.8078499  )
        15           H   tau(  15) = (   0.5000000   0.2537342   1.1155043  )
        16           H   tau(  16) = (   0.5000000   0.7462658   1.1155043  )
        17           H   tau(  17) = (   0.2537342   0.5000000   1.4489680  )
        18           H   tau(  18) = (   0.7462658   0.5000000   1.4489680  )
        19           H   tau(  19) = (   0.2537342   0.0000000   1.7566224  )
        20           H   tau(  20) = (   0.7462658   0.0000000   1.7566224  )
        21           H   tau(  21) = (   0.5000000   0.2462658   2.0900860  )
        22           H   tau(  22) = (   0.5000000   0.7537342   2.0900860  )
        23           H   tau(  23) = (   0.0000000   0.2462658   2.3977405  )
        24           H   tau(  24) = (   0.0000000   0.7537342   2.3977405  )

   Crystallographic axes

     site n.     atom                  positions (cryst. coord.)
         1           Al  tau(   1) = (  0.0000000  0.0000000  0.0000000  )
         2           Al  tau(   2) = (  0.0000000  0.5000000  0.2500000  )
         3           Al  tau(   3) = (  0.5000000  0.5000000  0.5000000  )
         4           Al  tau(   4) = (  0.5000000  0.0000000  0.7500000  )
         5           Cs  tau(   5) = (  0.5000000  0.5000000  0.0000000  )
         6           Cs  tau(   6) = (  0.5000000  0.0000000  0.2500000  )
         7           Cs  tau(   7) = (  0.0000000  0.0000000  0.5000000  )
         8           Cs  tau(   8) = (  0.0000000  0.5000000  0.7500000  )
         9           H   tau(   9) = (  0.2462658  0.0000000  0.0650160  )
        10           H   tau(  10) = (  0.7537342  0.0000000  0.0650160  )
        11           H   tau(  11) = (  0.2462658  0.5000000  0.1849840  )
        12           H   tau(  12) = (  0.7537342  0.5000000  0.1849840  )
        13           H   tau(  13) = (  0.0000000  0.2537342  0.3150160  )
        14           H   tau(  14) = (  0.0000000  0.7462658  0.3150160  )
        15           H   tau(  15) = (  0.5000000  0.2537342  0.4349840  )
        16           H   tau(  16) = (  0.5000000  0.7462658  0.4349840  )
        17           H   tau(  17) = (  0.2537342  0.5000000  0.5650160  )
        18           H   tau(  18) = (  0.7462658  0.5000000  0.5650160  )
        19           H   tau(  19) = (  0.2537342  0.0000000  0.6849840  )
        20           H   tau(  20) = (  0.7462658  0.0000000  0.6849840  )
        21           H   tau(  21) = (  0.5000000  0.2462658  0.8150160  )
        22           H   tau(  22) = (  0.5000000  0.7537342  0.8150160  )
        23           H   tau(  23) = (  0.0000000  0.2462658  0.9349840  )
        24           H   tau(  24) = (  0.0000000  0.7537342  0.9349840  )

     number of k points=    40  Marzari-Vanderbilt smearing, width (Ry)=  0.0050
                       cart. coord. in units 2pi/alat
        k(    1) = (   0.0000000   0.0000000   0.0000000), wk =   0.0058309
        k(    2) = (   0.0000000   0.0000000   0.0557063), wk =   0.0116618
        k(    3) = (   0.0000000   0.0000000   0.1114125), wk =   0.0116618
        k(    4) = (   0.0000000   0.0000000   0.1671188), wk =   0.0116618
        k(    5) = (   0.0000000   0.1428571   0.0000000), wk =   0.0233236
        k(    6) = (   0.0000000   0.1428571   0.0557063), wk =   0.0466472
        k(    7) = (   0.0000000   0.1428571   0.1114125), wk =   0.0466472
        k(    8) = (   0.0000000   0.1428571   0.1671188), wk =   0.0466472
        k(    9) = (   0.0000000   0.2857143   0.0000000), wk =   0.0233236
        k(   10) = (   0.0000000   0.2857143   0.0557063), wk =   0.0466472
        k(   11) = (   0.0000000   0.2857143   0.1114125), wk =   0.0466472
        k(   12) = (   0.0000000   0.2857143   0.1671188), wk =   0.0466472
        k(   13) = (   0.0000000   0.4285714   0.0000000), wk =   0.0233236
        k(   14) = (   0.0000000   0.4285714   0.0557063), wk =   0.0466472
        k(   15) = (   0.0000000   0.4285714   0.1114125), wk =   0.0466472
        k(   16) = (   0.0000000   0.4285714   0.1671188), wk =   0.0466472
        k(   17) = (   0.1428571   0.1428571   0.0000000), wk =   0.0233236
        k(   18) = (   0.1428571   0.1428571   0.0557063), wk =   0.0466472
        k(   19) = (   0.1428571   0.1428571   0.1114125), wk =   0.0466472
        k(   20) = (   0.1428571   0.1428571   0.1671188), wk =   0.0466472
        k(   21) = (   0.1428571   0.2857143   0.0000000), wk =   0.0466472
        k(   22) = (   0.1428571   0.2857143   0.0557063), wk =   0.0932945
        k(   23) = (   0.1428571   0.2857143   0.1114125), wk =   0.0932945
        k(   24) = (   0.1428571   0.2857143   0.1671188), wk =   0.0932945
        k(   25) = (   0.1428571   0.4285714   0.0000000), wk =   0.0466472
        k(   26) = (   0.1428571   0.4285714   0.0557063), wk =   0.0932945
        k(   27) = (   0.1428571   0.4285714   0.1114125), wk =   0.0932945
        k(   28) = (   0.1428571   0.4285714   0.1671188), wk =   0.0932945
        k(   29) = (   0.2857143   0.2857143   0.0000000), wk =   0.0233236
        k(   30) = (   0.2857143   0.2857143   0.0557063), wk =   0.0466472
        k(   31) = (   0.2857143   0.2857143   0.1114125), wk =   0.0466472
[...]
     0.0000   0.0000   0.0000   0.0000   0.0000   0.0000

     the Fermi energy is     2.8133 ev

!    total energy              =    -429.32944603 Ry
     estimated scf accuracy    <          3.7E-11 Ry
     smearing contrib. (-TS)   =       0.00000000 Ry
     internal energy E=F+TS    =    -429.32944603 Ry

     The total energy is F=E-TS. E is the sum of the following terms:
     one-electron contribution =     -34.23254866 Ry
     hartree contribution      =      34.74832178 Ry
     xc contribution           =    -142.43301154 Ry
     ewald contribution        =    -148.62601529 Ry
     one-center paw contrib.   =    -138.78619232 Ry
      -> PAW hartree energy AE =       5.16814551 Ry
      -> PAW hartree energy PS =      -5.15148329 Ry
      -> PAW xc energy AE      =    -110.29331820 Ry
      -> PAW xc energy PS      =       6.18701186 Ry
      -> total E_H with PAW    =      34.76498399 Ry
      -> total E_XC with PAW   =    -246.53931788 Ry

     convergence has been achieved in   9 iterations

     Forces acting on atoms (cartesian axes, Ry/au):

     atom    1 type  2   force =     0.00000000    0.00000000    0.00000000
     atom    2 type  2   force =     0.00000000    0.00000000    0.00000040
     atom    3 type  2   force =     0.00000000    0.00000000    0.00000000
     atom    4 type  2   force =     0.00000000    0.00000000   -0.00000040
     atom    5 type  3   force =     0.00000000    0.00000000    0.00000000
     atom    6 type  3   force =     0.00000000    0.00000000    0.00000103
     atom    7 type  3   force =     0.00000000    0.00000000    0.00000000
     atom    8 type  3   force =     0.00000000    0.00000000   -0.00000103
     atom    9 type  1   force =     0.00004318    0.00000000    0.00008355
     atom   10 type  1   force =    -0.00004318    0.00000000    0.00008355
     atom   11 type  1   force =     0.00004307    0.00000000   -0.00008333
     atom   12 type  1   force =    -0.00004307    0.00000000   -0.00008333
     atom   13 type  1   force =    -0.00000000   -0.00004299    0.00008349
     atom   14 type  1   force =     0.00000000    0.00004299    0.00008349
     atom   15 type  1   force =     0.00000000   -0.00004302   -0.00008342
     atom   16 type  1   force =     0.00000000    0.00004302   -0.00008342
     atom   17 type  1   force =    -0.00004302    0.00000000    0.00008342
     atom   18 type  1   force =     0.00004302   -0.00000000    0.00008342
     atom   19 type  1   force =    -0.00004299    0.00000000   -0.00008349
     atom   20 type  1   force =     0.00004299   -0.00000000   -0.00008349
     atom   21 type  1   force =    -0.00000000    0.00004307    0.00008333
     atom   22 type  1   force =     0.00000000   -0.00004307    0.00008333
     atom   23 type  1   force =    -0.00000000    0.00004318   -0.00008355
     atom   24 type  1   force =    -0.00000000   -0.00004318   -0.00008355
     The non-local contrib.  to forces
     atom    1 type  2   force =     0.00000000    0.00000000    0.00000000
     atom    2 type  2   force =     0.00000000    0.00000000   -0.00000000
     atom    3 type  2   force =     0.00000000    0.00000000    0.00000000
     atom    4 type  2   force =     0.00000000    0.00000000    0.00000000
     atom    5 type  3   force =     0.00000000    0.00000000    0.00000000
     atom    6 type  3   force =     0.00000000    0.00000000   -0.00000074
     atom    7 type  3   force =     0.00000000    0.00000000    0.00000000
     atom    8 type  3   force =     0.00000000    0.00000000    0.00000074
     atom    9 type  1   force =    -0.01948952    0.00000000   -0.01329534
     atom   10 type  1   force =     0.01948952   -0.00000000   -0.01329534
     atom   11 type  1   force =    -0.01948955    0.00000000    0.01329537
     atom   12 type  1   force =     0.01948955    0.00000000    0.01329537
     atom   13 type  1   force =    -0.00000000    0.01948956   -0.01329537
     atom   14 type  1   force =    -0.00000000   -0.01948956   -0.01329537
     atom   15 type  1   force =    -0.00000000    0.01948955    0.01329536
     atom   16 type  1   force =     0.00000000   -0.01948955    0.01329536
     atom   17 type  1   force =     0.01948955    0.00000000   -0.01329536
     atom   18 type  1   force =    -0.01948955   -0.00000000   -0.01329536
     atom   19 type  1   force =     0.01948956    0.00000000    0.01329537
     atom   20 type  1   force =    -0.01948956   -0.00000000    0.01329537
     atom   21 type  1   force =     0.00000000   -0.01948955   -0.01329537
     atom   22 type  1   force =    -0.00000000    0.01948955   -0.01329537
     atom   23 type  1   force =    -0.00000000   -0.01948952    0.01329534
     atom   24 type  1   force =     0.00000000    0.01948952    0.01329534
     The ionic contribution  to forces
     atom    1 type  2   force =    -0.00000000   -0.00000000   -0.00000000
     atom    2 type  2   force =     0.00000000   -0.00000000    0.00000127
     atom    3 type  2   force =    -0.00000000   -0.00000000   -0.00000000
     atom    4 type  2   force =     0.00000000    0.00000000   -0.00000127
     atom    5 type  3   force =    -0.00000000   -0.00000000    0.00000000
     atom    6 type  3   force =    -0.00000000    0.00000000    0.00000387
     atom    7 type  3   force =     0.00000000    0.00000000   -0.00000000
     atom    8 type  3   force =     0.00000000   -0.00000000   -0.00000387
     atom    9 type  1   force =     0.23279115    0.00000000    0.21294155
     atom   10 type  1   force =    -0.23279115   -0.00000000    0.21294155
     atom   11 type  1   force =     0.23279124    0.00000000   -0.21294136
     atom   12 type  1   force =    -0.23279124   -0.00000000   -0.21294136
     atom   13 type  1   force =     0.00000000   -0.23279133    0.21294192
     atom   14 type  1   force =     0.00000000    0.23279133    0.21294192
     atom   15 type  1   force =    -0.00000000   -0.23279130   -0.21294164
     atom   16 type  1   force =    -0.00000000    0.23279130   -0.21294164
     atom   17 type  1   force =    -0.23279130   -0.00000000    0.21294164
     atom   18 type  1   force =     0.23279130   -0.00000000    0.21294164
     atom   19 type  1   force =    -0.23279133   -0.00000000   -0.21294192
     atom   20 type  1   force =     0.23279133    0.00000000   -0.21294192
     atom   21 type  1   force =    -0.00000000    0.23279124    0.21294136
     atom   22 type  1   force =    -0.00000000   -0.23279124    0.21294136
     atom   23 type  1   force =     0.00000000    0.23279115   -0.21294155
     atom   24 type  1   force =     0.00000000   -0.23279115   -0.21294155
     The local contribution  to forces
     atom    1 type  2   force =     0.00000000   -0.00000000    0.00000000
     atom    2 type  2   force =     0.00000000   -0.00000000   -0.00000099
     atom    3 type  2   force =    -0.00000000   -0.00000000   -0.00000000
     atom    4 type  2   force =    -0.00000000    0.00000000    0.00000099
     atom    5 type  3   force =    -0.00000000   -0.00000000    0.00000000
     atom    6 type  3   force =    -0.00000000    0.00000000   -0.00000490
     atom    7 type  3   force =     0.00000000    0.00000000   -0.00000000
     atom    8 type  3   force =     0.00000000   -0.00000000    0.00000490
     atom    9 type  1   force =    -0.21325788    0.00000000   -0.19956230
     atom   10 type  1   force =     0.21325788   -0.00000000   -0.19956230
     atom   11 type  1   force =    -0.21325865   -0.00000000    0.19956281
     atom   12 type  1   force =     0.21325865   -0.00000000    0.19956281
     atom   13 type  1   force =     0.00000000    0.21325892   -0.19956336
     atom   14 type  1   force =    -0.00000000   -0.21325892   -0.19956336
     atom   15 type  1   force =    -0.00000000    0.21325881    0.19956288
     atom   16 type  1   force =    -0.00000000   -0.21325881    0.19956288
     atom   17 type  1   force =     0.21325881   -0.00000000   -0.19956288
     atom   18 type  1   force =    -0.21325881   -0.00000000   -0.19956288
     atom   19 type  1   force =     0.21325892    0.00000000    0.19956336
     atom   20 type  1   force =    -0.21325892   -0.00000000    0.19956336
     atom   21 type  1   force =    -0.00000000   -0.21325865   -0.19956281
     atom   22 type  1   force =    -0.00000000    0.21325865   -0.19956281
     atom   23 type  1   force =     0.00000000   -0.21325788    0.19956230
     atom   24 type  1   force =    -0.00000000    0.21325788    0.19956230
     The core correction contribution to forces
     atom    1 type  2   force =     0.00000000    0.00000000    0.00000000
     atom    2 type  2   force =     0.00000000    0.00000000    0.00000001
     atom    3 type  2   force =     0.00000000    0.00000000    0.00000000
     atom    4 type  2   force =     0.00000000    0.00000000   -0.00000001
     atom    5 type  3   force =     0.00000000    0.00000000    0.00000000
     atom    6 type  3   force =     0.00000000    0.00000000    0.00000012
     atom    7 type  3   force =     0.00000000    0.00000000    0.00000000
     atom    8 type  3   force =     0.00000000    0.00000000   -0.00000012
     atom    9 type  1   force =     0.00000000    0.00000000    0.00000000
     atom   10 type  1   force =     0.00000000    0.00000000    0.00000000
     atom   11 type  1   force =     0.00000000    0.00000000    0.00000000
     atom   12 type  1   force =     0.00000000    0.00000000    0.00000000
     atom   13 type  1   force =     0.00000000    0.00000000    0.00000000
     atom   14 type  1   force =     0.00000000    0.00000000    0.00000000
     atom   15 type  1   force =     0.00000000    0.00000000    0.00000000
     atom   16 type  1   force =     0.00000000    0.00000000    0.00000000
     atom   17 type  1   force =     0.00000000    0.00000000    0.00000000
     atom   18 type  1   force =     0.00000000    0.00000000    0.00000000
     atom   19 type  1   force =     0.00000000    0.00000000    0.00000000
     atom   20 type  1   force =     0.00000000    0.00000000    0.00000000
     atom   21 type  1   force =     0.00000000    0.00000000    0.00000000
     atom   22 type  1   force =     0.00000000    0.00000000    0.00000000
     atom   23 type  1   force =     0.00000000    0.00000000    0.00000000
     atom   24 type  1   force =     0.00000000    0.00000000    0.00000000
     The Hubbard contrib.    to forces
     atom    1 type  2   force =     0.00000000    0.00000000    0.00000000
     atom    2 type  2   force =     0.00000000    0.00000000    0.00000000
     atom    3 type  2   force =     0.00000000    0.00000000    0.00000000
     atom    4 type  2   force =     0.00000000    0.00000000    0.00000000
     atom    5 type  3   force =     0.00000000    0.00000000    0.00000000
     atom    6 type  3   force =     0.00000000    0.00000000    0.00000000
     atom    7 type  3   force =     0.00000000    0.00000000    0.00000000
     atom    8 type  3   force =     0.00000000    0.00000000    0.00000000
     atom    9 type  1   force =     0.00000000    0.00000000    0.00000000
     atom   10 type  1   force =     0.00000000    0.00000000    0.00000000
     atom   11 type  1   force =     0.00000000    0.00000000    0.00000000
     atom   12 type  1   force =     0.00000000    0.00000000    0.00000000
     atom   13 type  1   force =     0.00000000    0.00000000    0.00000000
     atom   14 type  1   force =     0.00000000    0.00000000    0.00000000
     atom   15 type  1   force =     0.00000000    0.00000000    0.00000000
     atom   16 type  1   force =     0.00000000    0.00000000    0.00000000
     atom   17 type  1   force =     0.00000000    0.00000000    0.00000000
     atom   18 type  1   force =     0.00000000    0.00000000    0.00000000
     atom   19 type  1   force =     0.00000000    0.00000000    0.00000000
     atom   20 type  1   force =     0.00000000    0.00000000    0.00000000
     atom   21 type  1   force =     0.00000000    0.00000000    0.00000000
     atom   22 type  1   force =     0.00000000    0.00000000    0.00000000
     atom   23 type  1   force =     0.00000000    0.00000000    0.00000000
     atom   24 type  1   force =     0.00000000    0.00000000    0.00000000
     The SCF correction term to forces
     atom    1 type  2   force =     0.00000000   -0.00000000    0.00000000
     atom    2 type  2   force =    -0.00000000   -0.00000000    0.00000012
     atom    3 type  2   force =     0.00000000   -0.00000000    0.00000000
     atom    4 type  2   force =    -0.00000000   -0.00000000   -0.00000012
     atom    5 type  3   force =    -0.00000000    0.00000000    0.00000000
     atom    6 type  3   force =     0.00000000   -0.00000000    0.00000269
     atom    7 type  3   force =    -0.00000000    0.00000000    0.00000000
     atom    8 type  3   force =     0.00000000   -0.00000000   -0.00000269
     atom    9 type  1   force =    -0.00000057   -0.00000000   -0.00000036
     atom   10 type  1   force =     0.00000057   -0.00000000   -0.00000036
     atom   11 type  1   force =     0.00000004    0.00000000   -0.00000015
     atom   12 type  1   force =    -0.00000004   -0.00000000   -0.00000015
     atom   13 type  1   force =     0.00000000   -0.00000015    0.00000031
     atom   14 type  1   force =    -0.00000000    0.00000015    0.00000031
     atom   15 type  1   force =     0.00000000   -0.00000009   -0.00000001
     atom   16 type  1   force =     0.00000000    0.00000009   -0.00000001
     atom   17 type  1   force =    -0.00000009   -0.00000000    0.00000001
     atom   18 type  1   force =     0.00000009   -0.00000000    0.00000001
     atom   19 type  1   force =    -0.00000015    0.00000000   -0.00000031
     atom   20 type  1   force =     0.00000015   -0.00000000   -0.00000031
     atom   21 type  1   force =     0.00000000    0.00000004    0.00000015
     atom   22 type  1   force =    -0.00000000   -0.00000004    0.00000015
     atom   23 type  1   force =     0.00000000   -0.00000057    0.00000036
     atom   24 type  1   force =     0.00000000    0.00000057    0.00000036

     Total force =     0.000376     Total SCF correction =     0.000004

     Computing stress (Cartesian axis) and pressure

          total   stress  (Ry/bohr**3)                   (kbar)     P=        0.00
  -0.00000153   0.00000000   0.00000000           -0.23        0.00        0.00
   0.00000000  -0.00000153   0.00000000            0.00       -0.23        0.00
   0.00000000   0.00000000   0.00000316            0.00        0.00        0.46

     kinetic stress (kbar)   2124.07     -0.00      0.00
                               -0.00   2124.07      0.00
                                0.00      0.00   2128.73

     local   stress (kbar)  -2214.41      0.00      0.00
                                0.00  -2214.41     -0.00
                                0.00     -0.00  -2267.93

     nonloc. stress (kbar)   2768.97     -0.00      0.00
                               -0.00   2768.97      0.00
                                0.00      0.00   2765.06

     hartree stress (kbar)    518.60      0.00     -0.00
                                0.00    518.60      0.00
                               -0.00      0.00    559.47

     exc-cor stress (kbar)   3666.85      0.00     -0.00
                                0.00   3666.85     -0.00
                               -0.00     -0.00   3666.08

     corecor stress (kbar)  -4583.65     -0.00     -0.00
                               -0.00  -4583.65      0.00
                               -0.00     -0.00  -4582.97

     ewald   stress (kbar)  -2280.64     -0.00      0.00
                               -0.00  -2280.64     -0.00
                                0.00     -0.00  -2267.97

     hubbard stress (kbar)      0.00      0.00      0.00
                                0.00      0.00      0.00
                                0.00      0.00      0.00

     DFT-D   stress (kbar)      0.00      0.00      0.00
                                0.00      0.00      0.00
                                0.00      0.00      0.00

     XDM     stress (kbar)      0.00      0.00      0.00
                                0.00      0.00      0.00
                                0.00      0.00      0.00

     dft-nl  stress (kbar)      0.00      0.00      0.00
                                0.00      0.00      0.00
                                0.00      0.00      0.00

     TS-vdW  stress (kbar)      0.00      0.00      0.00
                                0.00      0.00      0.00
                                0.00      0.00      0.00

     Writing output data file ./CsAlH4_optgeo.save/

     General routines

     Parallel routines

     PAW routines

   This run was terminated on:  20:22:14  26Nov2023

   JOB DONE.