     Program PWSCF v.7.0 starts on  5Dec2023 at 16:15:57

     R & G space division:  proc/nbgrp/npool/nimage =      48

     Waiting for input...
     Reading input from standard input

     Current dimensions of program PWSCF are:
     Max number of different atomic species (ntypx) = 10
     Max number of k-points (npk) =  40000
     Max angular momentum in pseudopotentials (lmaxx) =  4

     File ./basic.update deleted, as requested

     File ./basic.bfgs deleted, as requested
     file K_PSEUDO: wavefunction(s)  3S renormalized
     file Al_PSEUDO: wavefunction(s)  3S 3P renormalized

     IMPORTANT: XC functional enforced from input :
     Exchange-correlation= PBE
                           (   1   4   3   4   0   0   0)
     Any further DFT definition will be discarded
     Please, verify this is what you really want

     Message from routine setup:
     using ibrav=0 with symmetry is DISCOURAGED, use correct ibrav instead

     Using Slab Decomposition

     bravais-lattice index     =            0
     lattice parameter (alat)  =      12.6114  a.u.
     unit-cell volume          =    3872.4256 (a.u.)^3
     number of atoms/cell      =           44
     number of atomic types    =            3
     number of electrons       =       136.00
     number of Kohn-Sham states=           82
     kinetic-energy cutoff     =      60.0000  Ry
     charge density cutoff     =     240.0000  Ry
     scf convergence threshold =      1.0E-08
     mixing beta               =       0.7000
     number of iterations used =            8  plain     mixing
     energy convergence thresh.=      1.0E-04
     force convergence thresh. =      1.0E-03
     press convergence thresh. =      5.0E-01
     Exchange-correlation= PBE
                           (   1   4   3   4   0   0   0)
     nstep                     =           50

     celldm(1)=  12.611352  celldm(2)=   0.000000  celldm(3)=   0.000000
     celldm(4)=   0.000000  celldm(5)=   0.000000  celldm(6)=   0.000000

     crystal axes: (cart. coord. in units of alat)
               a(1) = (   1.081822   0.000000   0.000000 )
               a(2) = (   0.000000   1.081822   0.000000 )
               a(3) = (   0.000000   0.000000   1.649630 )

     reciprocal axes: (cart. coord. in units 2 pi/alat)
               b(1) = (  0.924367  0.000000  0.000000 )
               b(2) = (  0.000000  0.924367  0.000000 )
               b(3) = (  0.000000  0.000000  0.606196 )

     PseudoPot. # 1 for K  read from file:
     ./K_PSEUDO
     MD5 check sum: 7d58810084cac21f60fbe77ea2b688fd
     Pseudo is Projector augmented-wave + core cor, Zval =  9.0
     Generated using "atomic" code by A. Dal Corso  v.5.1
     Shape of augmentation charge: PSQ
     Using radial grid of 1165 points,  6 beta functions with:
                l(1) =   0
                l(2) =   0
                l(3) =   1
                l(4) =   1
                l(5) =   2
                l(6) =   2
     Q(r) pseudized with 0 coefficients

     PseudoPot. # 2 for H  read from file:
     ./H_PSEUDO
     MD5 check sum: f52b6d4d1c606e5624b1dc7b2218f220
     Pseudo is Ultrasoft, Zval =  1.0
     Generated using "atomic" code by A. Dal Corso  v.5.1
     Using radial grid of  929 points,  2 beta functions with:
                l(1) =   0
                l(2) =   0
     Q(r) pseudized with 0 coefficients

     PseudoPot. # 3 for Al read from file:
     ./Al_PSEUDO
     MD5 check sum: cfc449ca30b5f3223ec38ddd88ac046d
     Pseudo is Projector augmented-wave + core cor, Zval =  3.0
     Generated using "atomic" code by A. Dal Corso  v.5.1
     Shape of augmentation charge: PSQ
     Using radial grid of 1135 points,  6 beta functions with:
                l(1) =   0
                l(2) =   0
                l(3) =   1
                l(4) =   1
                l(5) =   2
                l(6) =   2
     Q(r) pseudized with 0 coefficients

     atomic species   valence    mass     pseudopotential
        K              9.00    39.09830     K ( 1.00)
        H              1.00     1.00750     H ( 1.00)
        Al             3.00    26.98100     Al( 1.00)

     16 Sym. Ops., with inversion, found ( 8 have fractional translation)

   Cartesian axes

     site n.     atom                  positions (alat units)
         1           Al  tau(   1) = (   0.0000000   0.5409110   0.0000000  )
         2           Al  tau(   2) = (   0.5409110   0.0000000   0.8248151  )
         3           Al  tau(   3) = (   0.0000000   0.5409110   0.8248151  )
         4           Al  tau(   4) = (   0.5409110   0.0000000   0.0000000  )
         5           Al  tau(   5) = (   0.0000000   0.0000000   0.0000000  )
         6           Al  tau(   6) = (   0.5409110   0.5409110   0.8248151  )
         7           K   tau(   7) = (   0.2290916   0.3118193   0.4124075  )
         8           K   tau(   8) = (   0.3118193   0.8527303   0.4124075  )
         9           K   tau(   9) = (   0.3118193   0.8527303   1.2372226  )
        10           K   tau(  10) = (   0.2290916   0.3118193   1.2372226  )
        11           K   tau(  11) = (   0.8527303   0.7700026   0.4124075  )
        12           K   tau(  12) = (   0.8527303   0.7700026   1.2372226  )
        13           K   tau(  13) = (   0.7700026   0.2290916   0.4124075  )
        14           K   tau(  14) = (   0.7700026   0.2290916   1.2372226  )
        15           K   tau(  15) = (   0.0000000   0.0000000   0.8248151  )
        16           K   tau(  16) = (   0.5409110   0.5409110   0.0000000  )
        17           H   tau(  17) = (   0.0486194   0.7243248   0.6431088  )
        18           H   tau(  18) = (   0.4922916   0.1834139   0.1817063  )
        19           H   tau(  19) = (   0.8984081   0.4922916   0.1817063  )
        20           H   tau(  20) = (   0.4922916   0.1834139   1.4679239  )
        21           H   tau(  21) = (   0.8984081   0.4922916   1.4679239  )
        22           H   tau(  22) = (   1.0332026   0.3574971   0.6431088  )
        23           H   tau(  23) = (   0.7243248   1.0332026   0.6431088  )
        24           H   tau(  24) = (   1.0332026   0.3574971   1.0065213  )
        25           H   tau(  25) = (   0.7243248   1.0332026   1.0065213  )
        26           H   tau(  26) = (   0.3574971   0.0486194   0.6431088  )
        27           H   tau(  27) = (   0.0486194   0.7243248   1.0065213  )
        28           H   tau(  28) = (   0.3574971   0.0486194   1.0065213  )
        29           H   tau(  29) = (   0.5895304   0.8984081   0.1817063  )
        30           H   tau(  30) = (   0.1834139   0.5895304   0.1817063  )
        31           H   tau(  31) = (   0.5895304   0.8984081   1.4679239  )
        32           H   tau(  32) = (   0.1834139   0.5895304   1.4679239  )
        33           H   tau(  33) = (   0.0807722   0.2660500   0.0000000  )
        34           H   tau(  34) = (   0.4601388   0.8069610   0.8248151  )
        35           H   tau(  35) = (   0.2748610   0.4601388   0.8248151  )
        36           H   tau(  36) = (   1.0010497   0.8157719   0.0000000  )
        37           H   tau(  37) = (   0.2660500   1.0010497   0.0000000  )
        38           H   tau(  38) = (   0.8157719   0.0807722   0.0000000  )
        39           H   tau(  39) = (   0.6216832   0.2748610   0.8248151  )
        40           H   tau(  40) = (   0.8069610   0.6216832   0.8248151  )
        41           H   tau(  41) = (   0.0000000   0.0000000   0.2724397  )
        42           H   tau(  42) = (   0.5409110   0.5409110   0.5523753  )
        43           H   tau(  43) = (   0.5409110   0.5409110   1.0972548  )
        44           H   tau(  44) = (   0.0000000   0.0000000   1.3771904  )

     number of k points=   288  Marzari-Vanderbilt smearing, width (Ry)=  0.0050

     Number of k-points >= 100: set verbosity='high' to print them.

     Check: negative core charge=   -0.000003

     Initial potential from superposition of free atoms

     starting charge     135.7977, renormalised to     136.0000
     Starting wfcs are  132 randomized atomic wfcs
     Checking if some PAW data can be deallocated...

     Self-consistent Calculation

     iteration #  1     ecut=    60.00 Ry     beta= 0.70
     Davidson diagonalization with overlap
     ethr =  1.00E-02,  avg # of iterations =  6.9

     total energy              =   -1399.98622378 Ry
     estimated scf accuracy    <       2.23835250 Ry

[...]

     iteration #  3     ecut=    60.00 Ry     beta= 0.70
     Davidson diagonalization with overlap
     c_bands:  1 eigenvalues not converged
     c_bands:  1 eigenvalues not converged
     c_bands:  1 eigenvalues not converged
     c_bands:  1 eigenvalues not converged
     c_bands:  1 eigenvalues not converged
     ethr =  3.58E-05,  avg # of iterations = 13.4

[...]

     End of self-consistent calculation

     Number of k-points >= 100: set verbosity='high' to print the bands.

     the Fermi energy is     4.5316 ev

!    total energy              =   -1400.32605633 Ry
     estimated scf accuracy    <          1.1E-09 Ry
     smearing contrib. (-TS)   =       0.00000000 Ry
     internal energy E=F+TS    =   -1400.32605633 Ry

     The total energy is F=E-TS. E is the sum of the following terms:
     one-electron contribution =    -218.79843091 Ry
     hartree contribution      =     152.68866763 Ry
     xc contribution           =    -148.45883580 Ry
     ewald contribution        =    -423.60995222 Ry
     one-center paw contrib.   =    -762.14750503 Ry

     convergence has been achieved in   9 iterations

     Forces acting on atoms (cartesian axes, Ry/au):

     atom    1 type  3   force =     0.00000000    0.00000000   -0.00000000
     atom    2 type  3   force =     0.00000000    0.00000000    0.00000000
     atom    3 type  3   force =     0.00000000    0.00000000   -0.00000000
     atom    4 type  3   force =     0.00000000    0.00000000   -0.00000000
     atom    5 type  3   force =     0.00000000    0.00000000    0.00000000
     atom    6 type  3   force =     0.00000000    0.00000000    0.00000000
     atom    7 type  1   force =    -0.00110725    0.00110725   -0.00000000
     atom    8 type  1   force =     0.00110725    0.00110725   -0.00000000
     atom    9 type  1   force =     0.00110725    0.00110725    0.00000000
     atom   10 type  1   force =    -0.00110725    0.00110725    0.00000000
     atom   11 type  1   force =     0.00110725   -0.00110725   -0.00000000
     atom   12 type  1   force =     0.00110725   -0.00110725    0.00000000
     atom   13 type  1   force =    -0.00110725   -0.00110725   -0.00000000
     atom   14 type  1   force =    -0.00110725   -0.00110725    0.00000000
     atom   15 type  1   force =     0.00000000    0.00000000    0.00000000
     atom   16 type  1   force =     0.00000000    0.00000000    0.00000000
     atom   17 type  2   force =    -0.00096249   -0.01188493    0.00952121
     atom   18 type  2   force =     0.00096249   -0.01188493   -0.00952121
     atom   19 type  2   force =     0.01188493    0.00096249   -0.00952121
     atom   20 type  2   force =     0.00096249   -0.01188493    0.00952121
[...]
H             0.5000000000        0.5000000000        0.3461334699
H             0.5000000000        0.5000000000        0.6538665301
H             0.0000000000        0.0000000000        0.8461334699

     Writing config-only to output data dir ./basic.save/
     NEW-OLD atomic charge density approx. for the potential

     Check: negative core charge=   -0.000002
     extrapolated charge  136.21034, renormalised to  136.00000

[...]

     Energy error            =      7.5E-05 Ry
     Gradient error          =      6.2E-04 Ry/Bohr
     Cell gradient error     =      2.9E-01 kbar

     bfgs converged in  19 scf cycles and  18 bfgs steps
     (criteria: energy <  1.0E-04 Ry, force <  1.0E-03Ry/Bohr, cell <  5.0E-01kbar)

     End of BFGS Geometry Optimization

     Final enthalpy           =   -1400.3602584134 Ry

     File ./basic.bfgs deleted, as requested
Begin final coordinates
     new unit-cell volume =   4074.44231 a.u.^3 (   603.77006 Ang^3 )
     density =      1.59813 g/cm^3

CELL_PARAMETERS (alat= 12.61135185)
   1.090202013   0.000000000   0.000000000
   0.000000000   1.090202013   0.000000000
   0.000000000   0.000000000   1.709107128

ATOMIC_POSITIONS (crystal)
Al            0.0000000000        0.5000000000        0.0000000000
Al            0.5000000000        0.0000000000        0.5000000000
Al            0.0000000000        0.5000000000        0.5000000000
Al            0.5000000000        0.0000000000       -0.0000000000
Al            0.0000000000        0.0000000000       -0.0000000000
Al            0.5000000000        0.5000000000        0.5000000000
K             0.2088961509        0.2911038491        0.2500000000
K             0.2911038491        0.7911038491        0.2500000000
K             0.2911038491        0.7911038491        0.7500000000
K             0.2088961509        0.2911038491        0.7500000000
K             0.7911038491        0.7088961509        0.2500000000
K             0.7911038491        0.7088961509        0.7500000000
K             0.7088961509        0.2088961509        0.2500000000
K             0.7088961509        0.2088961509        0.7500000000
K             0.0000000000        0.0000000000        0.5000000000
K             0.5000000000        0.5000000000        0.0000000000
H             0.0429390819        0.6642560167        0.3940574153
H             0.4570609181        0.1642560167        0.1059425847
H             0.8357439833        0.4570609181        0.1059425847
H             0.4570609181        0.1642560167        0.8940574153
H             0.8357439833        0.4570609181        0.8940574153
H             0.9570609181        0.3357439833        0.3940574153
H             0.6642560167        0.9570609181        0.3940574153
H             0.9570609181        0.3357439833        0.6059425847
H             0.6642560167        0.9570609181        0.6059425847
H             0.3357439833        0.0429390819        0.3940574153
H             0.0429390819        0.6642560167        0.6059425847
H             0.3357439833        0.0429390819        0.6059425847
H             0.5429390819        0.8357439833        0.1059425847
H             0.1642560167        0.5429390819        0.1059425847
H             0.5429390819        0.8357439833        0.8940574153
H             0.1642560167        0.5429390819        0.8940574153
H             0.0560685667        0.2451572900        0.0000000000
H             0.4439314333        0.7451572900        0.5000000000
H             0.2548427100        0.4439314333        0.5000000000
H             0.9439314333        0.7548427100        0.0000000000
H             0.2451572900        0.9439314333       -0.0000000000
H             0.7548427100        0.0560685667        0.0000000000
H             0.5560685667        0.2548427100        0.5000000000
H             0.7451572900        0.5560685667        0.5000000000
H             0.0000000000        0.0000000000        0.1538665301
H             0.5000000000        0.5000000000        0.3461334699
H             0.5000000000        0.5000000000        0.6538665301
H             0.0000000000        0.0000000000        0.8461334699
End final coordinates

     Writing config-only to output data dir ./basic.save/

     Final scf calculation at the relaxed structure.
     The G-vectors are recalculated for the final unit cell
     Results may differ from those at the preceding step.

     Using Slab Decomposition

     bravais-lattice index     =            0
     lattice parameter (alat)  =      12.6114  a.u.
     unit-cell volume          =    4074.4423 (a.u.)^3
     number of atoms/cell      =           44
     number of atomic types    =            3
     number of electrons       =       136.00
     number of Kohn-Sham states=           82
     kinetic-energy cutoff     =      60.0000  Ry
     charge density cutoff     =     240.0000  Ry
     scf convergence threshold =      1.0E-10
     mixing beta               =       0.7000
     number of iterations used =            8  plain     mixing
     press convergence thresh. =      5.0E-01
     Exchange-correlation= PBE
                           (   1   4   3   4   0   0   0)

     celldm(1)=  12.611352  celldm(2)=   0.000000  celldm(3)=   0.000000
     celldm(4)=   0.000000  celldm(5)=   0.000000  celldm(6)=   0.000000

     crystal axes: (cart. coord. in units of alat)
               a(1) = (   1.090202   0.000000   0.000000 )
               a(2) = (   0.000000   1.090202   0.000000 )
               a(3) = (   0.000000   0.000000   1.709107 )

     reciprocal axes: (cart. coord. in units 2 pi/alat)
               b(1) = (  0.917261  0.000000  0.000000 )
               b(2) = (  0.000000  0.917261  0.000000 )
               b(3) = (  0.000000  0.000000  0.585101 )

     PseudoPot. # 1 for K  read from file:
     ./K_PSEUDO
     MD5 check sum: 7d58810084cac21f60fbe77ea2b688fd
     Pseudo is Projector augmented-wave + core cor, Zval =  9.0
     Generated using "atomic" code by A. Dal Corso  v.5.1
     Shape of augmentation charge: PSQ
     Using radial grid of 1165 points,  6 beta functions with:
                l(1) =   0
                l(2) =   0
                l(3) =   1
                l(4) =   1
                l(5) =   2
                l(6) =   2
     Q(r) pseudized with 0 coefficients

     PseudoPot. # 2 for H  read from file:
     ./H_PSEUDO
     MD5 check sum: f52b6d4d1c606e5624b1dc7b2218f220
     Pseudo is Ultrasoft, Zval =  1.0
     Generated using "atomic" code by A. Dal Corso  v.5.1
     Using radial grid of  929 points,  2 beta functions with:
                l(1) =   0
                l(2) =   0
     Q(r) pseudized with 0 coefficients

     PseudoPot. # 3 for Al read from file:
     ./Al_PSEUDO
     MD5 check sum: cfc449ca30b5f3223ec38ddd88ac046d
     Pseudo is Projector augmented-wave + core cor, Zval =  3.0
     Generated using "atomic" code by A. Dal Corso  v.5.1
     Shape of augmentation charge: PSQ
     Using radial grid of 1135 points,  6 beta functions with:
                l(1) =   0
                l(2) =   0
                l(3) =   1
                l(4) =   1
                l(5) =   2
                l(6) =   2
     Q(r) pseudized with 0 coefficients

     atomic species   valence    mass     pseudopotential
        K              9.00    39.09830     K ( 1.00)
        H              1.00     1.00750     H ( 1.00)
        Al             3.00    26.98100     Al( 1.00)

     16 Sym. Ops., with inversion, found ( 8 have fractional translation)

   Cartesian axes

     site n.     atom                  positions (alat units)
         1           Al  tau(   1) = (   0.0000000   0.5451010   0.0000000  )
         2           Al  tau(   2) = (   0.5451010   0.0000000   0.8545536  )
         3           Al  tau(   3) = (   0.0000000   0.5451010   0.8545536  )
         4           Al  tau(   4) = (   0.5451010   0.0000000  -0.0000000  )
         5           Al  tau(   5) = (   0.0000000   0.0000000  -0.0000000  )
         6           Al  tau(   6) = (   0.5451010   0.5451010   0.8545536  )
         7           K   tau(   7) = (   0.2277390   0.3173620   0.4272768  )
         8           K   tau(   8) = (   0.3173620   0.8624630   0.4272768  )
         9           K   tau(   9) = (   0.3173620   0.8624630   1.2818303  )
        10           K   tau(  10) = (   0.2277390   0.3173620   1.2818303  )
        11           K   tau(  11) = (   0.8624630   0.7728400   0.4272768  )
        12           K   tau(  12) = (   0.8624630   0.7728400   1.2818303  )
        13           K   tau(  13) = (   0.7728400   0.2277390   0.4272768  )
        14           K   tau(  14) = (   0.7728400   0.2277390   1.2818303  )
        15           K   tau(  15) = (   0.0000000   0.0000000   0.8545536  )
        16           K   tau(  16) = (   0.5451010   0.5451010   0.0000000  )
        17           H   tau(  17) = (   0.0468123   0.7241732   0.6734863  )
        18           H   tau(  18) = (   0.4982887   0.1790722   0.1810672  )
        19           H   tau(  19) = (   0.9111298   0.4982887   0.1810672  )
        20           H   tau(  20) = (   0.4982887   0.1790722   1.5280399  )
        21           H   tau(  21) = (   0.9111298   0.4982887   1.5280399  )
        22           H   tau(  22) = (   1.0433897   0.3660288   0.6734863  )
        23           H   tau(  23) = (   0.7241732   1.0433897   0.6734863  )
        24           H   tau(  24) = (   1.0433897   0.3660288   1.0356208  )
        25           H   tau(  25) = (   0.7241732   1.0433897   1.0356208  )
        26           H   tau(  26) = (   0.3660288   0.0468123   0.6734863  )
        27           H   tau(  27) = (   0.0468123   0.7241732   1.0356208  )
        28           H   tau(  28) = (   0.3660288   0.0468123   1.0356208  )
        29           H   tau(  29) = (   0.5919133   0.9111298   0.1810672  )
        30           H   tau(  30) = (   0.1790722   0.5919133   0.1810672  )
        31           H   tau(  31) = (   0.5919133   0.9111298   1.5280399  )
        32           H   tau(  32) = (   0.1790722   0.5919133   1.5280399  )
        33           H   tau(  33) = (   0.0611261   0.2672710   0.0000000  )
        34           H   tau(  34) = (   0.4839749   0.8123720   0.8545536  )
        35           H   tau(  35) = (   0.2778300   0.4839749   0.8545536  )
        36           H   tau(  36) = (   1.0290759   0.8229310   0.0000000  )
        37           H   tau(  37) = (   0.2672710   1.0290759  -0.0000000  )
        38           H   tau(  38) = (   0.8229310   0.0611261   0.0000000  )
        39           H   tau(  39) = (   0.6062271   0.2778300   0.8545536  )
        40           H   tau(  40) = (   0.8123720   0.6062271   0.8545536  )
        41           H   tau(  41) = (   0.0000000   0.0000000   0.2629744  )
        42           H   tau(  42) = (   0.5451010   0.5451010   0.5915792  )
        43           H   tau(  43) = (   0.5451010   0.5451010   1.1175279  )
        44           H   tau(  44) = (   0.0000000   0.0000000   1.4461327  )

     number of k points=   288  Marzari-Vanderbilt smearing, width (Ry)=  0.0050

     Number of k-points >= 100: set verbosity='high' to print them.

     Check: negative core charge=   -0.000003

     Initial potential from superposition of free atoms

     starting charge     135.7977, renormalised to     136.0000
     Starting wfcs are  132 randomized atomic wfcs
     Checking if some PAW data can be deallocated...

     Self-consistent Calculation

[...]

     iteration #  7     ecut=    60.00 Ry     beta= 0.70
     Davidson diagonalization with overlap
     c_bands:  1 eigenvalues not converged
     c_bands:  1 eigenvalues not converged
     c_bands:  1 eigenvalues not converged
     ethr =  5.12E-09,  avg # of iterations =  3.5

[...]

     total energy              =   -1400.36073219 Ry
     estimated scf accuracy    <          8.3E-10 Ry

     iteration # 10     ecut=    60.00 Ry     beta= 0.70
     Davidson diagonalization with overlap
     ethr =  6.11E-13,  avg # of iterations =  4.1

     End of self-consistent calculation

     Number of k-points >= 100: set verbosity='high' to print the bands.

     the Fermi energy is     4.2167 ev

!    total energy              =   -1400.36073219 Ry
     estimated scf accuracy    <          7.0E-11 Ry
     smearing contrib. (-TS)   =       0.00000000 Ry
     internal energy E=F+TS    =   -1400.36073219 Ry

     The total energy is F=E-TS. E is the sum of the following terms:
     one-electron contribution =    -229.00663961 Ry
     hartree contribution      =     155.61982055 Ry
     xc contribution           =    -148.36955013 Ry
     ewald contribution        =    -416.43942050 Ry
     one-center paw contrib.   =    -762.16494251 Ry

     convergence has been achieved in  10 iterations

     Forces acting on atoms (cartesian axes, Ry/au):

     atom    1 type  3   force =     0.00000000    0.00000000    0.00000000
     atom    2 type  3   force =     0.00000000    0.00000000    0.00000000
     atom    3 type  3   force =     0.00000000    0.00000000    0.00000000
     atom    4 type  3   force =     0.00000000    0.00000000    0.00000000
     atom    5 type  3   force =     0.00000000    0.00000000    0.00000000
     atom    6 type  3   force =     0.00000000    0.00000000    0.00000000
     atom    7 type  1   force =     0.00047352   -0.00047352   -0.00000000
     atom    8 type  1   force =    -0.00047352   -0.00047352    0.00000000
     atom    9 type  1   force =    -0.00047352   -0.00047352    0.00000000
     atom   10 type  1   force =     0.00047352   -0.00047352    0.00000000
     atom   11 type  1   force =    -0.00047352    0.00047352   -0.00000000
     atom   12 type  1   force =    -0.00047352    0.00047352    0.00000000
     atom   13 type  1   force =     0.00047352    0.00047352   -0.00000000
     atom   14 type  1   force =     0.00047352    0.00047352   -0.00000000
     atom   15 type  1   force =     0.00000000    0.00000000   -0.00000000
     atom   16 type  1   force =     0.00000000    0.00000000   -0.00000000
     atom   17 type  2   force =    -0.00038206    0.00008921   -0.00062359
     atom   18 type  2   force =     0.00038206    0.00008921    0.00062359
     atom   19 type  2   force =    -0.00008921    0.00038206    0.00062359
     atom   20 type  2   force =     0.00038206    0.00008921   -0.00062359
     atom   21 type  2   force =    -0.00008921    0.00038206   -0.00062359
     atom   22 type  2   force =     0.00038206   -0.00008921   -0.00062359
     atom   23 type  2   force =     0.00008921    0.00038206   -0.00062359
     atom   24 type  2   force =     0.00038206   -0.00008921    0.00062359
     atom   25 type  2   force =     0.00008921    0.00038206    0.00062359
     atom   26 type  2   force =    -0.00008921   -0.00038206   -0.00062359
     atom   27 type  2   force =    -0.00038206    0.00008921    0.00062359
     atom   28 type  2   force =    -0.00008921   -0.00038206    0.00062359
     atom   29 type  2   force =    -0.00038206   -0.00008921    0.00062359
     atom   30 type  2   force =     0.00008921   -0.00038206    0.00062359
     atom   31 type  2   force =    -0.00038206   -0.00008921   -0.00062359
     atom   32 type  2   force =     0.00008921   -0.00038206   -0.00062359
     atom   33 type  2   force =    -0.00024495    0.00029582    0.00000000
     atom   34 type  2   force =     0.00024495    0.00029582    0.00000000
     atom   35 type  2   force =    -0.00029582    0.00024495   -0.00000000
     atom   36 type  2   force =     0.00024495   -0.00029582    0.00000000
     atom   37 type  2   force =     0.00029582    0.00024495    0.00000000
     atom   38 type  2   force =    -0.00029582   -0.00024495    0.00000000
     atom   39 type  2   force =    -0.00024495   -0.00029582    0.00000000
     atom   40 type  2   force =     0.00029582   -0.00024495   -0.00000000
     atom   41 type  2   force =     0.00000000    0.00000000    0.00053854
     atom   42 type  2   force =     0.00000000    0.00000000   -0.00053854
     atom   43 type  2   force =     0.00000000    0.00000000    0.00053854
     atom   44 type  2   force =     0.00000000    0.00000000   -0.00053854

     Total force =     0.003823     Total SCF correction =     0.000002

     Computing stress (Cartesian axis) and pressure

          total   stress  (Ry/bohr**3)                   (kbar)     P=        0.28
   0.00000126   0.00000000   0.00000000            0.19        0.00        0.00
   0.00000000   0.00000126   0.00000000            0.00        0.19        0.00
   0.00000000   0.00000000   0.00000320            0.00        0.00        0.47

     Writing all to output data dir ./basic.save/

     General routines

     Parallel routines

   This run was terminated on:  20:47:10   5Dec2023

   JOB DONE.