     Program PWSCF v.7.0 starts on  6Dec2023 at 21:57:33

     R & G space division:  proc/nbgrp/npool/nimage =      48

     Waiting for input...
     Reading input from standard input

     Current dimensions of program PWSCF are:
     Max number of different atomic species (ntypx) = 10
     Max number of k-points (npk) =  40000
     Max angular momentum in pseudopotentials (lmaxx) =  4
     file Al.pbe-n-kjpaw_psl.1.0.0.UPF: wavefunction(s)  3S 3P renormalized

     IMPORTANT: XC functional enforced from input :
     Exchange-correlation= PBE
                           (   1   4   3   4   0   0   0)
     Any further DFT definition will be discarded
     Please, verify this is what you really want

     Message from routine set_cutoff:
     ecutrho < 4*ecutwfc, are you sure?
     Found identity + ( -0.3333  0.3333  0.3333) symmetry
     This is a supercell, fractional translations are disabled
     Message from routine setup:
     using ibrav=0 with symmetry is DISCOURAGED, use correct ibrav instead

     Using Slab Decomposition

     bravais-lattice index     =            0
     lattice parameter (alat)  =      15.0344  a.u.
     unit-cell volume          =    3473.1695 (a.u.)^3
     number of atoms/cell      =           60
     number of atomic types    =            3
     number of electrons       =       108.00
     number of Kohn-Sham states=           65
     kinetic-energy cutoff     =      70.0000  Ry
     charge density cutoff     =     200.0000  Ry
     scf convergence threshold =      1.0E-08
     mixing beta               =       0.7000
     number of iterations used =            8  plain     mixing
     energy convergence thresh.=      1.0E-04
     force convergence thresh. =      1.0E-03
     press convergence thresh. =      5.0E-01
     Exchange-correlation= PBE
                           (   1   4   3   4   0   0   0)
     nstep                     =           50

     celldm(1)=  15.034396  celldm(2)=   0.000000  celldm(3)=   0.000000
     celldm(4)=   0.000000  celldm(5)=   0.000000  celldm(6)=   0.000000

     crystal axes: (cart. coord. in units of alat)
               a(1) = (   1.000000   0.000000   0.000000 )
               a(2) = (  -0.500000   0.866025   0.000000 )
               a(3) = (   0.000000   0.000000   1.180150 )

     reciprocal axes: (cart. coord. in units 2 pi/alat)
               b(1) = (  1.000000  0.577350  0.000000 )
               b(2) = (  0.000000  1.154701  0.000000 )
               b(3) = (  0.000000  0.000000  0.847350 )

     PseudoPot. # 1 for Al read from file:
     ./Al.pbe-n-kjpaw_psl.1.0.0.UPF
     MD5 check sum: cfc449ca30b5f3223ec38ddd88ac046d
     Pseudo is Projector augmented-wave + core cor, Zval =  3.0
     Generated using "atomic" code by A. Dal Corso  v.5.1
     Shape of augmentation charge: PSQ
     Using radial grid of 1135 points,  6 beta functions with:
                l(1) =   0
                l(2) =   0
                l(3) =   1
                l(4) =   1
                l(5) =   2
                l(6) =   2
     Q(r) pseudized with 0 coefficients

     PseudoPot. # 2 for Li read from file:
     ./li_pbe_v1.4.uspp.F.UPF
     MD5 check sum: e912e257baa3777c20ea3d68f190483c
     Pseudo is Ultrasoft, Zval =  3.0
     Generated by new atomic code, or converted to UPF format
     Using radial grid of  751 points,  5 beta functions with:
                l(1) =   0
                l(2) =   0
                l(3) =   0
                l(4) =   1
                l(5) =   1
     Q(r) pseudized with 10 coefficients,  rinner =    1.150   1.150   1.150

     PseudoPot. # 3 for H  read from file:
     ./H.pbe-rrkjus_psl.1.0.0.UPF
     MD5 check sum: f52b6d4d1c606e5624b1dc7b2218f220
     Pseudo is Ultrasoft, Zval =  1.0
     Generated using "atomic" code by A. Dal Corso  v.5.1
     Using radial grid of  929 points,  2 beta functions with:
                l(1) =   0
                l(2) =   0
     Q(r) pseudized with 0 coefficients

     atomic species   valence    mass     pseudopotential
        Al             3.00    26.98100     Al( 1.00)
        Li             3.00     6.96750     Li( 1.00)
        H              1.00     1.00750     H ( 1.00)

      6 Sym. Ops., with inversion, found

   Cartesian axes

     site n.     atom                  positions (alat units)
         1           Al  tau(   1) = (   0.0000000   0.0000000   0.5900752  )
         2           Al  tau(   2) = (   0.0000000   0.0000000   0.0000000  )
         3           Al  tau(   3) = (   0.5000000   0.2886751   0.9834586  )
         4           Al  tau(   4) = (   0.5000000   0.2886751   0.3933835  )
         5           Al  tau(   5) = (  -0.0000000   0.5773503   0.1966917  )
         6           Al  tau(   6) = (  -0.0000000   0.5773503   0.7867669  )
         7           Li  tau(   7) = (   0.0909959   0.3449420   0.5419916  )
         8           Li  tau(   8) = (   0.1557736   0.7723592   0.5419916  )
         9           Li  tau(   9) = (   0.4090041   0.5210834   0.6381587  )
        10           Li  tau(  10) = (   0.3442264   0.0936662   0.6381587  )
        11           Li  tau(  11) = (  -0.2467695   0.6147497   0.5419916  )
        12           Li  tau(  12) = (   0.7467695   0.2512757   0.6381587  )
        13           Li  tau(  13) = (   0.5909959   0.6336171   0.9353751  )
        14           Li  tau(  14) = (   0.1557736   0.1950089   0.9353751  )
        15           Li  tau(  15) = (  -0.0909959   0.8097586   1.0315422  )
        16           Li  tau(  16) = (  -0.1557736   0.3823414   1.0315422  )
        17           Li  tau(  17) = (   0.7532305   0.0373994   0.9353751  )
        18           Li  tau(  18) = (   0.2467695   0.5399509   1.0315422  )
        19           Li  tau(  19) = (   0.5909959   0.0562668   0.1486082  )
        20           Li  tau(  20) = (   0.6557736   0.4836840   0.1486082  )
        21           Li  tau(  21) = (  -0.0909959   0.2324083   0.2447753  )
        22           Li  tau(  22) = (   0.3442264   0.6710165   0.2447753  )
        23           Li  tau(  23) = (   0.2532305   0.3260745   0.1486082  )
        24           Li  tau(  24) = (  -0.2532305   0.8286260   0.2447753  )
        25           H   tau(  25) = (   0.5686017   0.1300885   0.5254411  )
        26           H   tau(  26) = (  -0.0686017   0.7359369   0.6547093  )
        27           H   tau(  27) = (   0.3891985   0.7196562   0.4725268  )
        28           H   tau(  28) = (  -0.3178399   0.8432531   0.4725268  )
        29           H   tau(  29) = (  -0.0713587   0.1691415   0.4725268  )
        30           H   tau(  30) = (   0.1108015   0.1463692   0.7076236  )
        31           H   tau(  31) = (   0.8178399   0.0227723   0.7076236  )
        32           H   tau(  32) = (   0.5713587   0.6968839   0.7076236  )
        33           H   tau(  33) = (  -0.1030392   0.4386462   0.6547093  )
        34           H   tau(  34) = (   0.3283591   0.3085576   0.5254411  )
        35           H   tau(  35) = (   0.6030392   0.4273792   0.5254411  )
        36           H   tau(  36) = (   0.1716409   0.5574678   0.6547093  )
        37           H   tau(  37) = (   0.0686017   0.4187637   0.9188245  )
        38           H   tau(  38) = (  -0.0686017   0.1585866   1.0480927  )
        39           H   tau(  39) = (   0.3891986   0.1423060   0.8659103  )
        40           H   tau(  40) = (   0.6821601   0.2659029   0.8659103  )
        41           H   tau(  41) = (   0.4286413   0.4578166   0.8659103  )
        42           H   tau(  42) = (   0.6108014   0.4350443   1.1010070  )
        43           H   tau(  43) = (   0.3178398   0.3114474   1.1010070  )
        44           H   tau(  44) = (   0.5713587   0.1195337   1.1010070  )
        45           H   tau(  45) = (   0.3969608   0.7273213   1.0480927  )
        46           H   tau(  46) = (  -0.1716409   0.5972328   0.9188245  )
        47           H   tau(  47) = (   0.1030392   0.7160544   0.9188245  )
        48           H   tau(  48) = (  -0.3283591   0.8461429   1.0480927  )
        49           H   tau(  49) = (   0.5686017   0.7074388   0.1320576  )
        50           H   tau(  50) = (   0.4313983   0.4472617   0.2613258  )
        51           H   tau(  51) = (  -0.1108014   0.4309811   0.0791434  )
        52           H   tau(  52) = (   0.1821602   0.5545780   0.0791434  )
        53           H   tau(  53) = (  -0.0713587   0.7464917   0.0791434  )
        54           H   tau(  54) = (   0.1108014   0.7237194   0.3142401  )
        55           H   tau(  55) = (  -0.1821601   0.6001225   0.3142401  )
        56           H   tau(  56) = (   0.0713587   0.4082088   0.3142401  )
        57           H   tau(  57) = (   0.3969608   0.1499710   0.2613258  )
        58           H   tau(  58) = (   0.8283591   0.0198825   0.1320576  )
        59           H   tau(  59) = (   0.1030392   0.1387041   0.1320576  )
        60           H   tau(  60) = (   0.6716409   0.2687926   0.2613258  )

     number of k points=     8  Marzari-Vanderbilt smearing, width (Ry)=  0.0050
                       cart. coord. in units 2pi/alat
        k(    1) = (   0.0000000   0.0000000   0.0000000), wk =   0.0740741
        k(    2) = (   0.0000000   0.0000000   0.2824499), wk =   0.1481481
        k(    3) = (   0.0000000   0.3849002   0.0000000), wk =   0.4444444
        k(    4) = (   0.0000000   0.3849002   0.2824499), wk =   0.4444444
        k(    5) = (   0.3333333   0.5773503   0.0000000), wk =   0.1481481
        k(    6) = (   0.3333333   0.5773503   0.2824499), wk =   0.1481481
        k(    7) = (   0.0000000  -0.3849002   0.2824499), wk =   0.4444444
        k(    8) = (  -0.3333333  -0.5773503   0.2824499), wk =   0.1481481

     Initial potential from superposition of free atoms

     starting charge      99.8725, renormalised to     108.0000
     Starting wfcs are  150 randomized atomic wfcs
     Checking if some PAW data can be deallocated...

     Self-consistent Calculation

     iteration #  1     ecut=    70.00 Ry     beta= 0.70
     Davidson diagonalization with overlap
     ethr =  1.00E-02,  avg # of iterations =  3.8

     total energy              =    -540.32602507 Ry
     estimated scf accuracy    <       2.64848685 Ry

[...]

     End of self-consistent calculation

          k = 0.0000 0.0000 0.0000 ( 34217 PWs)   bands (ev):

   -43.6108 -43.6053 -43.6052 -43.6015 -43.6015 -43.6014 -43.6014 -43.5998
   -43.5998 -43.5952 -43.5952 -43.5951 -43.5951 -43.5951 -43.5951 -43.5925
   -43.5925 -43.5901  -6.5803  -5.7273  -5.7273  -5.4714  -5.4714  -5.0485
    -3.2301  -3.2301  -3.2301  -3.2301  -3.0624  -3.0624  -2.5923  -2.5923
    -2.5409  -2.4496  -2.4496  -2.4495  -2.4495  -1.7686  -1.7686  -1.5460
    -1.5460  -1.1915  -1.1915  -1.0304  -0.3172  -0.3172   0.3440   0.3440
     0.3440   0.3440   0.5784   0.5784   0.5784   0.5784   4.6396   4.7857
     4.7857   5.6421   5.6429   5.6437   5.7849   5.7850   5.7850   6.0558
     6.1144

[...]

          k =-0.3333-0.5774 0.2824 ( 34344 PWs)   bands (ev):

[...]

     the Fermi energy is     4.0788 ev

!    total energy              =    -540.73156982 Ry
     estimated scf accuracy    <          2.7E-09 Ry
[...]
H             0.3597612540        0.8625451224        0.0667218643
H             0.5292141904        0.8361192443        0.2666086396
H             0.1638807557        0.6930949462        0.2666086396
H             0.3069050538        0.4707858096        0.2666086396
H             0.4829947083        0.1726192709        0.2210895450
H             0.8392866641        0.0229583343        0.1122469078
H             0.1836716602        0.1607133359        0.1122469078
H             0.8273807291        0.3103754474        0.2210895450
End final coordinates

     Writing config-only to output data dir ./LiAlH4.save/

     Final scf calculation at the relaxed structure.
     The G-vectors are recalculated for the final unit cell
     Results may differ from those at the preceding step.

     Using Slab Decomposition

     bravais-lattice index     =            0
     lattice parameter (alat)  =      15.0344  a.u.
     unit-cell volume          =    3541.9453 (a.u.)^3
     number of atoms/cell      =           60
     number of atomic types    =            3
     number of electrons       =       108.00
     number of Kohn-Sham states=           65
     kinetic-energy cutoff     =      70.0000  Ry
     charge density cutoff     =     200.0000  Ry
     scf convergence threshold =      1.0E-10
     mixing beta               =       0.7000
     number of iterations used =            8  plain     mixing
     press convergence thresh. =      5.0E-01
     Exchange-correlation= PBE
                           (   1   4   3   4   0   0   0)

     celldm(1)=  15.034396  celldm(2)=   0.000000  celldm(3)=   0.000000
     celldm(4)=   0.000000  celldm(5)=   0.000000  celldm(6)=   0.000000

     crystal axes: (cart. coord. in units of alat)
               a(1) = (   1.006598   0.000000   0.000000 )
               a(2) = (  -0.503299   0.871739  -0.000000 )
               a(3) = (  -0.000000   0.000000   1.187794 )

     reciprocal axes: (cart. coord. in units 2 pi/alat)
               b(1) = (  0.993445  0.573566 -0.000000 )
               b(2) = ( -0.000000  1.147132 -0.000000 )
               b(3) = ( -0.000000  0.000000  0.841897 )

     PseudoPot. # 1 for Al read from file:
     ./Al.pbe-n-kjpaw_psl.1.0.0.UPF
     MD5 check sum: cfc449ca30b5f3223ec38ddd88ac046d
     Pseudo is Projector augmented-wave + core cor, Zval =  3.0
     Generated using "atomic" code by A. Dal Corso  v.5.1
     Shape of augmentation charge: PSQ
     Using radial grid of 1135 points,  6 beta functions with:
                l(1) =   0
                l(2) =   0
                l(3) =   1
                l(4) =   1
                l(5) =   2
                l(6) =   2
     Q(r) pseudized with 0 coefficients

     PseudoPot. # 2 for Li read from file:
     ./li_pbe_v1.4.uspp.F.UPF
     MD5 check sum: e912e257baa3777c20ea3d68f190483c
     Pseudo is Ultrasoft, Zval =  3.0
     Generated by new atomic code, or converted to UPF format
     Using radial grid of  751 points,  5 beta functions with:
                l(1) =   0
                l(2) =   0
                l(3) =   0
                l(4) =   1
                l(5) =   1
     Q(r) pseudized with 10 coefficients,  rinner =    1.150   1.150   1.150

     PseudoPot. # 3 for H  read from file:
     ./H.pbe-rrkjus_psl.1.0.0.UPF
     MD5 check sum: f52b6d4d1c606e5624b1dc7b2218f220
     Pseudo is Ultrasoft, Zval =  1.0
     Generated using "atomic" code by A. Dal Corso  v.5.1
     Using radial grid of  929 points,  2 beta functions with:
                l(1) =   0
                l(2) =   0
     Q(r) pseudized with 0 coefficients

     atomic species   valence    mass     pseudopotential
        Al             3.00    26.98100     Al( 1.00)
        Li             3.00     6.96750     Li( 1.00)
        H              1.00     1.00750     H ( 1.00)

      6 Sym. Ops., with inversion, found

   Cartesian axes

     site n.     atom                  positions (alat units)
         1           Al  tau(   1) = (   0.0000000   0.0000000   0.5938969  )
         2           Al  tau(   2) = (   0.0000000   0.0000000  -0.0000000  )
         3           Al  tau(   3) = (   0.5032990   0.2905798   0.9898276  )
         4           Al  tau(   4) = (   0.5032990   0.2905798   0.3959310  )
         5           Al  tau(   5) = (  -0.0000000   0.5811596   0.1979663  )
         6           Al  tau(   6) = (  -0.0000000   0.5811596   0.7918628  )
         7           Li  tau(   7) = (   0.0914880   0.3471469   0.5454390  )
         8           Li  tau(   8) = (   0.1569170   0.7773969   0.5454390  )
         9           Li  tau(   9) = (   0.4118110   0.5245926   0.6423549  )
        10           Li  tau(  10) = (   0.3463820   0.0943425   0.6423549  )
        11           Li  tau(  11) = (  -0.2484050   0.6189351   0.5454390  )
        12           Li  tau(  12) = (   0.7517040   0.2528044   0.6423549  )
        13           Li  tau(  13) = (   0.5947864   0.6377261   0.9413594  )
        14           Li  tau(  14) = (   0.1569178   0.1962371   0.9413594  )
        15           Li  tau(  15) = (  -0.0914889   0.8151737   1.0383097  )
        16           Li  tau(  16) = (  -0.1569177   0.3849209   1.0383097  )
        17           Li  tau(  17) = (   0.7581928   0.0377762   0.9413594  )
        18           Li  tau(  18) = (   0.2484066   0.5433843   1.0383097  )
        19           Li  tau(  19) = (   0.5947879   0.0565657   0.1494842  )
        20           Li  tau(  20) = (   0.6602167   0.4868186   0.1494842  )
        21           Li  tau(  21) = (  -0.0914874   0.2340133   0.2464345  )
        22           Li  tau(  22) = (   0.3463812   0.6755024   0.2464345  )
        23           Li  tau(  23) = (   0.2548924   0.3283551   0.1494842  )
        24           Li  tau(  24) = (  -0.2548938   0.8339632   0.2464345  )
        25           H   tau(  25) = (   0.5726312   0.1304661   0.5292591  )
        26           H   tau(  26) = (  -0.0693322   0.7412734   0.6585348  )
        27           H   tau(  27) = (   0.3914118   0.7240220   0.4751824  )
        28           H   tau(  28) = (  -0.3194283   0.8487010   0.4751824  )
        29           H   tau(  29) = (  -0.0719835   0.1707559   0.4751824  )
        30           H   tau(  30) = (   0.1118872   0.1477175   0.7126115  )
        31           H   tau(  31) = (   0.8227273   0.0230384   0.7126115  )
        32           H   tau(  32) = (   0.5752825   0.7009835   0.7126115  )
        33           H   tau(  33) = (  -0.1039965   0.4410593   0.6585348  )
        34           H   tau(  34) = (   0.3299703   0.3105933   0.5292591  )
        35           H   tau(  35) = (   0.6072955   0.4306801   0.5292591  )
        36           H   tau(  36) = (   0.1733287   0.5611462   0.6585348  )
        37           H   tau(  37) = (   0.0693326   0.4210455   0.9251851  )
        38           H   tau(  38) = (  -0.0693320   0.1601138   1.0544677  )
        39           H   tau(  39) = (   0.3914110   0.1428613   0.8711178  )
        40           H   tau(  40) = (   0.6871710   0.2675412   0.8711178  )
        41           H   tau(  41) = (   0.4313150   0.4613369   0.8711178  )
        42           H   tau(  42) = (   0.6151856   0.4382965   1.1085421  )
        43           H   tau(  43) = (   0.3194293   0.3136181   1.1085421  )
        44           H   tau(  44) = (   0.5752821   0.1198248   1.1085421  )
        45           H   tau(  45) = (   0.3993023   0.7316393   1.0544677  )
        46           H   tau(  46) = (  -0.1733291   0.6011729   0.9251851  )
        47           H   tau(  47) = (   0.1039966   0.7212604   0.9251851  )
        48           H   tau(  48) = (  -0.3299704   0.8517258   1.0544677  )
        49           H   tau(  49) = (   0.5726310   0.7116256   0.1333262  )
        50           H   tau(  50) = (   0.4339665   0.4506939   0.2626088  )
        51           H   tau(  51) = (  -0.1118866   0.4334429   0.0792518  )
        52           H   tau(  52) = (   0.1838697   0.5581214   0.0792518  )
        53           H   tau(  53) = (  -0.0719831   0.7519146   0.0792518  )
        54           H   tau(  54) = (   0.1118880   0.7288781   0.3166761  )
        55           H   tau(  55) = (  -0.1838720   0.6041982   0.3166761  )
        56           H   tau(  56) = (   0.0719840   0.4104026   0.3166761  )
        57           H   tau(  57) = (   0.3993024   0.1504790   0.2626088  )
        58           H   tau(  58) = (   0.8332694   0.0200137   0.1333262  )
        59           H   tau(  59) = (   0.1039967   0.1401002   0.1333262  )
        60           H   tau(  60) = (   0.6766281   0.2705665   0.2626088  )

     number of k points=     8  Marzari-Vanderbilt smearing, width (Ry)=  0.0050
                       cart. coord. in units 2pi/alat
        k(    1) = (   0.0000000   0.0000000   0.0000000), wk =   0.0740741
        k(    2) = (  -0.0000000   0.0000000   0.2806323), wk =   0.1481481
        k(    3) = (  -0.0000000   0.3823772  -0.0000000), wk =   0.4444444
        k(    4) = (  -0.0000000   0.3823772   0.2806323), wk =   0.4444444
        k(    5) = (   0.3311484   0.5735659  -0.0000000), wk =   0.1481481
        k(    6) = (   0.3311484   0.5735659   0.2806323), wk =   0.1481481
        k(    7) = (   0.0000000  -0.3823772   0.2806323), wk =   0.4444444
        k(    8) = (  -0.3311484  -0.5735659   0.2806323), wk =   0.1481481

     Initial potential from superposition of free atoms

     starting charge      99.8725, renormalised to     108.0000
     Starting wfcs are  150 randomized atomic wfcs
     Checking if some PAW data can be deallocated...

     Self-consistent Calculation

     iteration #  1     ecut=    70.00 Ry     beta= 0.70
     Davidson diagonalization with overlap
     c_bands:  4 eigenvalues not converged
     ethr =  1.00E-06,  avg # of iterations = 33.8

[...]

     total energy              =    -540.73498312 Ry
     estimated scf accuracy    <       0.00000002 Ry

     iteration # 10     ecut=    70.00 Ry     beta= 0.70
     Davidson diagonalization with overlap
     ethr =  1.39E-11,  avg # of iterations =  2.0

     End of self-consistent calculation

[...]

          k = 0.0000-0.3824 0.2806 ( 35040 PWs)   bands (ev):

[...]

          k =-0.3311-0.5736 0.2806 ( 35052 PWs)   bands (ev):

   -43.7302 -43.7302 -43.7302 -43.7281 -43.7281 -43.7281 -43.7246 -43.7246
   -43.7246 -43.7209 -43.7209 -43.7209 -43.7181 -43.7181 -43.7181 -43.7172
   -43.7172 -43.7172  -5.9108  -5.9108  -5.9108  -5.6655  -5.6655  -5.6655
    -3.2370  -3.2370  -3.2370  -3.0388  -3.0388  -3.0388  -2.6105  -2.6105
    -2.6105  -2.1104  -2.1104  -2.1104  -1.9433  -1.9433  -1.9433  -1.4436
    -1.4436  -1.4436  -0.8417  -0.8417  -0.8416  -0.6599  -0.6599  -0.6598
     0.0938   0.0938   0.0938   0.4880   0.4881   0.4881   4.7477   4.7477
     4.7478   5.2088   5.2088   5.2089   5.5910   5.5910   5.5910   5.8840
     5.8840

     the Fermi energy is     3.9255 ev

!    total energy              =    -540.73498313 Ry
     estimated scf accuracy    <          3.0E-11 Ry
     smearing contrib. (-TS)   =      -0.00000000 Ry
     internal energy E=F+TS    =    -540.73498313 Ry

     The total energy is F=E-TS. E is the sum of the following terms:
     one-electron contribution =    -142.32638716 Ry
     hartree contribution      =      71.18324142 Ry
     xc contribution           =    -103.44642370 Ry
     ewald contribution        =    -158.12098499 Ry
     one-center paw contrib.   =    -208.02442870 Ry

     convergence has been achieved in  10 iterations

     Forces acting on atoms (cartesian axes, Ry/au):

     atom    1 type  1   force =     0.00000000   -0.00000000   -0.00000000
     atom    2 type  1   force =    -0.00000000   -0.00000000    0.00000000
     atom    3 type  1   force =     0.00000000   -0.00000000   -0.00000709
     atom    4 type  1   force =    -0.00000000    0.00000000   -0.00000104
     atom    5 type  1   force =    -0.00000000    0.00000000    0.00000709
     atom    6 type  1   force =     0.00000000   -0.00000000    0.00000104
     atom    7 type  2   force =    -0.00033158   -0.00013454   -0.00008298
     atom    8 type  2   force =     0.00028230   -0.00021989   -0.00008298
     atom    9 type  2   force =     0.00033158    0.00013454    0.00008298
     atom   10 type  2   force =    -0.00028230    0.00021989    0.00008298
     atom   11 type  2   force =     0.00004928    0.00035443   -0.00008298
     atom   12 type  2   force =    -0.00004928   -0.00035443    0.00008298
     atom   13 type  2   force =    -0.00033215   -0.00013481   -0.00007586
     atom   14 type  2   force =     0.00028283   -0.00022025   -0.00007586
     atom   15 type  2   force =     0.00033249    0.00013188    0.00006254
     atom   16 type  2   force =    -0.00028045    0.00022201    0.00006254
     atom   17 type  2   force =     0.00004932    0.00035506   -0.00007586
     atom   18 type  2   force =    -0.00005204   -0.00035388    0.00006254
     atom   19 type  2   force =    -0.00033249   -0.00013188   -0.00006254
     atom   20 type  2   force =     0.00028045   -0.00022201   -0.00006254
     atom   21 type  2   force =     0.00033215    0.00013481    0.00007586
     atom   22 type  2   force =    -0.00028283    0.00022025    0.00007586
     atom   23 type  2   force =     0.00005204    0.00035388   -0.00006254
     atom   24 type  2   force =    -0.00004932   -0.00035506    0.00007586
     atom   25 type  3   force =    -0.00001150    0.00047783   -0.00026241
     atom   26 type  3   force =     0.00001150   -0.00047783    0.00026241
     atom   27 type  3   force =     0.00013792    0.00050702    0.00029653
     atom   28 type  3   force =    -0.00050805   -0.00013406    0.00029653
     atom   29 type  3   force =     0.00037013   -0.00037295    0.00029653
     atom   30 type  3   force =    -0.00013792   -0.00050702   -0.00029653
     atom   31 type  3   force =     0.00050805    0.00013406   -0.00029653
     atom   32 type  3   force =    -0.00037013    0.00037295   -0.00029653
     atom   33 type  3   force =     0.00040806    0.00024887    0.00026241
     atom   34 type  3   force =     0.00041956   -0.00022896   -0.00026241
     atom   35 type  3   force =    -0.00040806   -0.00024887   -0.00026241
     atom   36 type  3   force =    -0.00041956    0.00022896    0.00026241
     atom   37 type  3   force =    -0.00000905    0.00047590   -0.00025573
     atom   38 type  3   force =     0.00001118   -0.00047769    0.00026218
     atom   39 type  3   force =     0.00013720    0.00050626    0.00029052
     atom   40 type  3   force =    -0.00050704   -0.00013432    0.00029052
     atom   41 type  3   force =     0.00036984   -0.00037195    0.00029052
     atom   42 type  3   force =    -0.00013653   -0.00050501   -0.00029360
     atom   43 type  3   force =     0.00050562    0.00013427   -0.00029360
     atom   44 type  3   force =    -0.00036909    0.00037074   -0.00029360
     atom   45 type  3   force =     0.00040811    0.00024852    0.00026218
     atom   46 type  3   force =     0.00041667   -0.00023011   -0.00025573
     atom   47 type  3   force =    -0.00040762   -0.00024579   -0.00025573
     atom   48 type  3   force =    -0.00041928    0.00022917    0.00026218
     atom   49 type  3   force =    -0.00001118    0.00047769   -0.00026218
     atom   50 type  3   force =     0.00000905   -0.00047590    0.00025573
     atom   51 type  3   force =     0.00013653    0.00050501    0.00029360
     atom   52 type  3   force =    -0.00050562   -0.00013427    0.00029360
     atom   53 type  3   force =     0.00036909   -0.00037074    0.00029360
     atom   54 type  3   force =    -0.00013720   -0.00050626   -0.00029052
     atom   55 type  3   force =     0.00050704    0.00013432   -0.00029052
     atom   56 type  3   force =    -0.00036984    0.00037195   -0.00029052
     atom   57 type  3   force =     0.00040762    0.00024579    0.00025573
     atom   58 type  3   force =     0.00041928   -0.00022917   -0.00026218
     atom   59 type  3   force =    -0.00040811   -0.00024852   -0.00026218
     atom   60 type  3   force =    -0.00041667    0.00023011    0.00025573

     Total force =     0.003772     Total SCF correction =     0.000003

     Computing stress (Cartesian axis) and pressure

          total   stress  (Ry/bohr**3)                   (kbar)     P=        0.29
   0.00000154  -0.00000000  -0.00000000            0.23       -0.00       -0.00
   0.00000000   0.00000154   0.00000000            0.00        0.23        0.00
  -0.00000000   0.00000000   0.00000287           -0.00        0.00        0.42

     Writing all to output data dir ./LiAlH4.save/

     General routines

     Parallel routines

   This run was terminated on:  21:59:46   6Dec2023

   JOB DONE.