     Program PWSCF v.7.1 starts on  6Dec2023 at 19:36:38

     Reading input from Li5Al3H14.in

     Current dimensions of program PWSCF are:
     Max number of different atomic species (ntypx) = 10
     Max number of k-points (npk) =  40000
     Max angular momentum in pseudopotentials (lmaxx) =  4
     file Al.pbe-n-kjpaw_psl.1.0.0.UPF: wavefunction(s)  3S 3P renormalized

     IMPORTANT: XC functional enforced from input :
     Exchange-correlation= PBE
                           (   1   4   3   4   0   0   0)
     Any further DFT definition will be discarded
     Please, verify this is what you really want

     Message from routine set_cutoff:
     ecutrho < 4*ecutwfc, are you sure?
     Message from routine setup:
     using ibrav=0 with symmetry is DISCOURAGED, use correct ibrav instead

     R & G space division:  proc/nbgrp/npool/nimage =      28
     Subspace diagonalization in iterative solution of the eigenvalue problem:
     a serial algorithm will be used

     Using Slab Decomposition

     bravais-lattice index     =            0
     lattice parameter (alat)  =      12.6114  a.u.
     unit-cell volume          =    3067.3055 (a.u.)^3
     number of atoms/cell      =           44
     number of atomic types    =            3
     number of electrons       =        76.00
     number of Kohn-Sham states=           46
     kinetic-energy cutoff     =      70.0000  Ry
     charge density cutoff     =     200.0000  Ry
     scf convergence threshold =      1.0E-08
     mixing beta               =       0.7000
     number of iterations used =            8  plain     mixing
     energy convergence thresh.=      1.0E-04
     force convergence thresh. =      1.0E-03
     press convergence thresh. =      5.0E-01
     Exchange-correlation= PBE
                           (   1   4   3   4   0   0   0)
     nstep                     =           50

     celldm(1)=  12.611352  celldm(2)=   0.000000  celldm(3)=   0.000000
     celldm(4)=   0.000000  celldm(5)=   0.000000  celldm(6)=   0.000000

     crystal axes: (cart. coord. in units of alat)
               a(1) = (   1.000000   0.000000   0.000000 )
               a(2) = (   0.000000   1.000000   0.000000 )
               a(3) = (   0.000000   0.000000   1.529228 )

     reciprocal axes: (cart. coord. in units 2 pi/alat)
               b(1) = (  1.000000  0.000000  0.000000 )
               b(2) = (  0.000000  1.000000  0.000000 )
               b(3) = (  0.000000  0.000000  0.653925 )

     PseudoPot. # 1 for Al read from file:
     /scratch/antwerpen/209/vsc20922/pseudos/Al.pbe-n-kjpaw_psl.1.0.0.UPF
     MD5 check sum: cfc449ca30b5f3223ec38ddd88ac046d
     Pseudo is Projector augmented-wave + core cor, Zval =  3.0
     Generated using "atomic" code by A. Dal Corso  v.5.1
     Shape of augmentation charge: PSQ
     Using radial grid of 1135 points,  6 beta functions with:
                l(1) =   0
                l(2) =   0
                l(3) =   1
                l(4) =   1
                l(5) =   2
                l(6) =   2
     Q(r) pseudized with 0 coefficients

     PseudoPot. # 2 for Li read from file:
     /scratch/antwerpen/209/vsc20922/pseudos/li_pbe_v1.4.uspp.F.UPF
     MD5 check sum: e912e257baa3777c20ea3d68f190483c
     Pseudo is Ultrasoft, Zval =  3.0
     Generated by new atomic code, or converted to UPF format
     Using radial grid of  751 points,  5 beta functions with:
                l(1) =   0
                l(2) =   0
                l(3) =   0
                l(4) =   1
                l(5) =   1
     Q(r) pseudized with 10 coefficients,  rinner =    1.150   1.150   1.150

     PseudoPot. # 3 for H  read from file:
     /scratch/antwerpen/209/vsc20922/pseudos/H.pbe-rrkjus_psl.1.0.0.UPF
     MD5 check sum: f52b6d4d1c606e5624b1dc7b2218f220
     Pseudo is Ultrasoft, Zval =  1.0
     Generated using "atomic" code by A. Dal Corso  v.5.1
     Using radial grid of  929 points,  2 beta functions with:
                l(1) =   0
                l(2) =   0
     Q(r) pseudized with 0 coefficients

     atomic species   valence    mass     pseudopotential
        Al             3.00    26.98100     Al( 1.00)
        Li             3.00     6.96750     Li( 1.00)
        H              1.00     1.00750     H ( 1.00)

     16 Sym. Ops., with inversion, found ( 8 have fractional translation)

   Cartesian axes

     site n.     atom                  positions (alat units)
         1           Al  tau(   1) = (   0.0000000   0.0000000   0.0000000  )
         2           Al  tau(   2) = (   0.5000000   0.5000000   0.7646138  )
         3           Al  tau(   3) = (   0.0000000   0.5000000   0.0000000  )
         4           Al  tau(   4) = (   0.5000000   0.0000000   0.0000000  )
         5           Al  tau(   5) = (   0.5000000   0.0000000   0.7646138  )
         6           Al  tau(   6) = (   0.0000000   0.5000000   0.7646138  )
         7           Li  tau(   7) = (   0.0000000   0.0000000   0.7646138  )
         8           Li  tau(   8) = (   0.5000000   0.5000000   0.0000000  )
         9           Li  tau(   9) = (   0.2873471   0.7873471   0.3823069  )
        10           Li  tau(  10) = (   0.2126529   0.2873471   0.3823069  )
        11           Li  tau(  11) = (   0.7873471   0.7126529   0.3823069  )
        12           Li  tau(  12) = (   0.7126529   0.2126529   0.3823069  )
        13           Li  tau(  13) = (   0.2873471   0.7873471   1.1469206  )
        14           Li  tau(  14) = (   0.2126529   0.2873471   1.1469206  )
        15           Li  tau(  15) = (   0.7873471   0.7126529   1.1469206  )
        16           Li  tau(  16) = (   0.7126529   0.2126529   1.1469206  )
        17           H   tau(  17) = (   0.5437980   0.8200507   0.1797052  )
        18           H   tau(  18) = (   0.4562020   0.1799493   0.1797052  )
        19           H   tau(  19) = (   0.3200507   0.0437980   0.5849086  )
        20           H   tau(  20) = (   0.8200507   0.4562020   0.1797052  )
        21           H   tau(  21) = (   0.1799493   0.5437980   0.1797052  )
        22           H   tau(  22) = (   0.9562020   0.3200507   0.5849086  )
        23           H   tau(  23) = (   0.0437980   0.6799493   0.5849086  )
        24           H   tau(  24) = (   0.6799493   0.9562020   0.5849086  )
        25           H   tau(  25) = (   0.4562020   0.1799493   1.3495223  )
        26           H   tau(  26) = (   0.5437980   0.8200507   1.3495223  )
        27           H   tau(  27) = (   0.6799493   0.9562020   0.9443189  )
        28           H   tau(  28) = (   0.1799493   0.5437980   1.3495223  )
        29           H   tau(  29) = (   0.8200507   0.4562020   1.3495223  )
        30           H   tau(  30) = (   0.0437980   0.6799493   0.9443189  )
        31           H   tau(  31) = (   0.9562020   0.3200507   0.9443189  )
        32           H   tau(  32) = (   0.3200507   0.0437980   0.9443189  )
        33           H   tau(  33) = (   0.0000000   0.0000000   0.2607407  )
        34           H   tau(  34) = (   0.5000000   0.5000000   0.5038731  )
        35           H   tau(  35) = (   0.0000000   0.0000000   1.2684868  )
        36           H   tau(  36) = (   0.5000000   0.5000000   1.0253544  )
        37           H   tau(  37) = (   0.7523734   0.0751217   0.0000000  )
        38           H   tau(  38) = (   0.9248783   0.7523734   0.0000000  )
        39           H   tau(  39) = (   0.0751217   0.2476266   0.0000000  )
        40           H   tau(  40) = (   0.2523734   0.4248783   0.7646138  )
        41           H   tau(  41) = (   0.7476266   0.5751217   0.7646138  )
        42           H   tau(  42) = (   0.2476266   0.9248783   0.0000000  )
        43           H   tau(  43) = (   0.5751217   0.2523734   0.7646138  )
        44           H   tau(  44) = (   0.4248783   0.7476266   0.7646138  )

     number of k points=    18  Marzari-Vanderbilt smearing, width (Ry)=  0.0050
                       cart. coord. in units 2pi/alat
        k(    1) = (   0.0000000   0.0000000   0.0000000), wk =   0.0160000
        k(    2) = (   0.0000000   0.0000000   0.1307850), wk =   0.0320000
        k(    3) = (   0.0000000   0.0000000   0.2615700), wk =   0.0320000
        k(    4) = (   0.0000000   0.2000000   0.0000000), wk =   0.0640000
        k(    5) = (   0.0000000   0.2000000   0.1307850), wk =   0.1280000
        k(    6) = (   0.0000000   0.2000000   0.2615700), wk =   0.1280000
        k(    7) = (   0.0000000   0.4000000   0.0000000), wk =   0.0640000
        k(    8) = (   0.0000000   0.4000000   0.1307850), wk =   0.1280000
        k(    9) = (   0.0000000   0.4000000   0.2615700), wk =   0.1280000
        k(   10) = (   0.2000000   0.2000000   0.0000000), wk =   0.0640000
        k(   11) = (   0.2000000   0.2000000   0.1307850), wk =   0.1280000
        k(   12) = (   0.2000000   0.2000000   0.2615700), wk =   0.1280000
        k(   13) = (   0.2000000   0.4000000   0.0000000), wk =   0.1280000
        k(   14) = (   0.2000000   0.4000000   0.1307850), wk =   0.2560000
        k(   15) = (   0.2000000   0.4000000   0.2615700), wk =   0.2560000
        k(   16) = (   0.4000000   0.4000000   0.0000000), wk =   0.0640000
        k(   17) = (   0.4000000   0.4000000   0.1307850), wk =   0.1280000
        k(   18) = (   0.4000000   0.4000000   0.2615700), wk =   0.1280000

     Initial potential from superposition of free atoms

     starting charge      71.4786, renormalised to      76.0000
     Starting wfcs are  102 randomized atomic wfcs
     Checking if some PAW data can be deallocated...

     Self-consistent Calculation

     iteration #  1     ecut=    70.00 Ry     beta= 0.70
     Davidson diagonalization with overlap
     ethr =  1.00E-02,  avg # of iterations =  3.4

     total energy              =    -414.61501292 Ry
     estimated scf accuracy    <       1.72793541 Ry

[...]

     iteration #  5     ecut=    70.00 Ry     beta= 0.70
     Davidson diagonalization with overlap
     c_bands:  2 eigenvalues not converged
     ethr =  1.27E-06,  avg # of iterations = 10.4

[...]

     End of self-consistent calculation

          k = 0.0000 0.0000 0.0000 ( 30351 PWs)   bands (ev):

   -45.7573 -45.7573 -45.2688 -45.2688 -45.2669 -45.2669 -45.2669 -45.2669
   -45.2653 -45.2653  -7.4142  -7.1874  -5.5375  -5.1807  -4.1954  -3.9277
    -3.9099  -3.8256  -3.8256  -3.7224  -3.7224  -2.6394  -2.5868  -2.3663
    -2.3663  -2.3540  -2.0682  -2.0682  -1.4613  -1.3797  -0.9058  -0.7155
    -0.7155  -0.4637  -0.1480  -0.1003  -0.1003   0.2648   2.7972   3.9443
     4.5069   4.5069   4.6080   4.8257   4.9501   5.2150

[...]

     the Fermi energy is     1.0443 ev

!    total energy              =    -414.86875151 Ry
     estimated scf accuracy    <          3.3E-09 Ry
     smearing contrib. (-TS)   =       0.00000000 Ry
     internal energy E=F+TS    =    -414.86875151 Ry

     The total energy is F=E-TS. E is the sum of the following terms:
     one-electron contribution =     -78.79121872 Ry
     hartree contribution      =      42.33823151 Ry
     xc contribution           =     -69.23382232 Ry
     ewald contribution        =    -101.16337855 Ry
[...]
Li            0.7220367284        0.2220367284        0.7500000000
H             0.5425267173        0.8065108467        0.1297212275
H             0.4574732827        0.1934891533        0.1297212275
H             0.3065108467        0.0425267173        0.3702787725
H             0.8065108467        0.4574732827        0.1297212275
H             0.1934891533        0.5425267173        0.1297212275
H             0.9574732827        0.3065108467        0.3702787725
H             0.0425267173        0.6934891533        0.3702787725
H             0.6934891533        0.9574732827        0.3702787725
H             0.4574732827        0.1934891533        0.8702787725
H             0.5425267173        0.8065108467        0.8702787725
H             0.6934891533        0.9574732827        0.6297212275
H             0.1934891533        0.5425267173        0.8702787725
H             0.8065108467        0.4574732827        0.8702787725
H             0.0425267173        0.6934891533        0.6297212275
H             0.9574732827        0.3065108467        0.6297212275
H             0.3065108467        0.0425267173        0.6297212275
H             0.0000000000        0.0000000000        0.1854170591
H             0.5000000000        0.5000000000        0.3145829409
H             0.0000000000        0.0000000000        0.8145829409
H             0.5000000000        0.5000000000        0.6854170591
H             0.7515992944        0.1002476923       -0.0000000000
H             0.8997523077        0.7515992944       -0.0000000000
H             0.1002476923        0.2484007056       -0.0000000000
H             0.2515992944        0.3997523077        0.5000000000
H             0.7484007056        0.6002476923        0.5000000000
H             0.2484007056        0.8997523077       -0.0000000000
H             0.6002476923        0.2515992944        0.5000000000
H             0.3997523077        0.7484007056        0.5000000000
End final coordinates

     Writing config-only to output data dir ./Li5Al3H14.save/

     Final scf calculation at the relaxed structure.
     The G-vectors are recalculated for the final unit cell
     Results may differ from those at the preceding step.

     Using Slab Decomposition

     bravais-lattice index     =            0
     lattice parameter (alat)  =      12.6114  a.u.
     unit-cell volume          =    2519.7176 (a.u.)^3
     number of atoms/cell      =           44
     number of atomic types    =            3
     number of electrons       =        76.00
     number of Kohn-Sham states=           46
     kinetic-energy cutoff     =      70.0000  Ry
     charge density cutoff     =     200.0000  Ry
     scf convergence threshold =      1.0E-10
     mixing beta               =       0.7000
     number of iterations used =            8  plain     mixing
     press convergence thresh. =      5.0E-01
     Exchange-correlation= PBE
                           (   1   4   3   4   0   0   0)

     celldm(1)=  12.611352  celldm(2)=   0.000000  celldm(3)=   0.000000
     celldm(4)=   0.000000  celldm(5)=   0.000000  celldm(6)=   0.000000

     crystal axes: (cart. coord. in units of alat)
               a(1) = (   0.947964   0.000000   0.000000 )
               a(2) = (   0.000000   0.947964   0.000000 )
               a(3) = (   0.000000   0.000000   1.397924 )

     reciprocal axes: (cart. coord. in units 2 pi/alat)
               b(1) = (  1.054893  0.000000  0.000000 )
               b(2) = (  0.000000  1.054893  0.000000 )
               b(3) = (  0.000000  0.000000  0.715347 )

     PseudoPot. # 1 for Al read from file:
     /scratch/antwerpen/209/vsc20922/pseudos/Al.pbe-n-kjpaw_psl.1.0.0.UPF
     MD5 check sum: cfc449ca30b5f3223ec38ddd88ac046d
     Pseudo is Projector augmented-wave + core cor, Zval =  3.0
     Generated using "atomic" code by A. Dal Corso  v.5.1
     Shape of augmentation charge: PSQ
     Using radial grid of 1135 points,  6 beta functions with:
                l(1) =   0
                l(2) =   0
                l(3) =   1
                l(4) =   1
                l(5) =   2
                l(6) =   2
     Q(r) pseudized with 0 coefficients

     PseudoPot. # 2 for Li read from file:
     /scratch/antwerpen/209/vsc20922/pseudos/li_pbe_v1.4.uspp.F.UPF
     MD5 check sum: e912e257baa3777c20ea3d68f190483c
     Pseudo is Ultrasoft, Zval =  3.0
     Generated by new atomic code, or converted to UPF format
     Using radial grid of  751 points,  5 beta functions with:
                l(1) =   0
                l(2) =   0
                l(3) =   0
                l(4) =   1
                l(5) =   1
     Q(r) pseudized with 10 coefficients,  rinner =    1.150   1.150   1.150

     PseudoPot. # 3 for H  read from file:
     /scratch/antwerpen/209/vsc20922/pseudos/H.pbe-rrkjus_psl.1.0.0.UPF
     MD5 check sum: f52b6d4d1c606e5624b1dc7b2218f220
     Pseudo is Ultrasoft, Zval =  1.0
     Generated using "atomic" code by A. Dal Corso  v.5.1
     Using radial grid of  929 points,  2 beta functions with:
                l(1) =   0
                l(2) =   0
     Q(r) pseudized with 0 coefficients

     atomic species   valence    mass     pseudopotential
        Al             3.00    26.98100     Al( 1.00)
        Li             3.00     6.96750     Li( 1.00)
        H              1.00     1.00750     H ( 1.00)

     16 Sym. Ops., with inversion, found ( 8 have fractional translation)

   Cartesian axes

     site n.     atom                  positions (alat units)
         1           Al  tau(   1) = (   0.0000000   0.0000000  -0.0000000  )
         2           Al  tau(   2) = (   0.4739819   0.4739819   0.6989619  )
         3           Al  tau(   3) = (   0.0000000   0.4739819   0.0000000  )
         4           Al  tau(   4) = (   0.4739819   0.0000000  -0.0000000  )
         5           Al  tau(   5) = (   0.4739819   0.0000000   0.6989619  )
         6           Al  tau(   6) = (   0.0000000   0.4739819   0.6989619  )
         7           Li  tau(   7) = (   0.0000000   0.0000000   0.6989619  )
         8           Li  tau(   8) = (   0.4739819   0.4739819  -0.0000000  )
         9           Li  tau(   9) = (   0.2634991   0.7374810   0.3494810  )
        10           Li  tau(  10) = (   0.2104828   0.2634991   0.3494810  )
        11           Li  tau(  11) = (   0.7374810   0.6844646   0.3494810  )
        12           Li  tau(  12) = (   0.6844646   0.2104828   0.3494810  )
        13           Li  tau(  13) = (   0.2634991   0.7374810   1.0484429  )
        14           Li  tau(  14) = (   0.2104828   0.2634991   1.0484429  )
        15           Li  tau(  15) = (   0.7374810   0.6844646   1.0484429  )
        16           Li  tau(  16) = (   0.6844646   0.2104828   1.0484429  )
        17           H   tau(  17) = (   0.5142956   0.7645430   0.1813404  )
        18           H   tau(  18) = (   0.4336681   0.1834207   0.1813404  )
        19           H   tau(  19) = (   0.2905612   0.0403138   0.5176215  )
        20           H   tau(  20) = (   0.7645430   0.4336681   0.1813404  )
        21           H   tau(  21) = (   0.1834207   0.5142956   0.1813404  )
        22           H   tau(  22) = (   0.9076499   0.2905612   0.5176215  )
        23           H   tau(  23) = (   0.0403138   0.6574026   0.5176215  )
        24           H   tau(  24) = (   0.6574026   0.9076499   0.5176215  )
        25           H   tau(  25) = (   0.4336681   0.1834207   1.2165834  )
        26           H   tau(  26) = (   0.5142956   0.7645430   1.2165834  )
        27           H   tau(  27) = (   0.6574026   0.9076499   0.8803023  )
        28           H   tau(  28) = (   0.1834207   0.5142956   1.2165834  )
        29           H   tau(  29) = (   0.7645430   0.4336681   1.2165834  )
        30           H   tau(  30) = (   0.0403138   0.6574026   0.8803023  )
        31           H   tau(  31) = (   0.9076499   0.2905612   0.8803023  )
        32           H   tau(  32) = (   0.2905612   0.0403138   0.8803023  )
        33           H   tau(  33) = (   0.0000000   0.0000000   0.2591989  )
        34           H   tau(  34) = (   0.4739819   0.4739819   0.4397630  )
        35           H   tau(  35) = (   0.0000000   0.0000000   1.1387249  )
        36           H   tau(  36) = (   0.4739819   0.4739819   0.9581608  )
        37           H   tau(  37) = (   0.7124889   0.0950312  -0.0000000  )
        38           H   tau(  38) = (   0.8529326   0.7124889  -0.0000000  )
        39           H   tau(  39) = (   0.0950312   0.2354749  -0.0000000  )
        40           H   tau(  40) = (   0.2385070   0.3789507   0.6989619  )
        41           H   tau(  41) = (   0.7094567   0.5690130   0.6989619  )
        42           H   tau(  42) = (   0.2354749   0.8529326  -0.0000000  )
        43           H   tau(  43) = (   0.5690130   0.2385070   0.6989619  )
        44           H   tau(  44) = (   0.3789507   0.7094567   0.6989619  )

     number of k points=    18  Marzari-Vanderbilt smearing, width (Ry)=  0.0050
                       cart. coord. in units 2pi/alat
        k(    1) = (   0.0000000   0.0000000   0.0000000), wk =   0.0160000
        k(    2) = (   0.0000000   0.0000000   0.1430693), wk =   0.0320000
        k(    3) = (   0.0000000   0.0000000   0.2861386), wk =   0.0320000
        k(    4) = (   0.0000000   0.2109785   0.0000000), wk =   0.0640000
        k(    5) = (   0.0000000   0.2109785   0.1430693), wk =   0.1280000
        k(    6) = (   0.0000000   0.2109785   0.2861386), wk =   0.1280000
        k(    7) = (   0.0000000   0.4219571   0.0000000), wk =   0.0640000
        k(    8) = (   0.0000000   0.4219571   0.1430693), wk =   0.1280000
        k(    9) = (   0.0000000   0.4219571   0.2861386), wk =   0.1280000
        k(   10) = (   0.2109785   0.2109785   0.0000000), wk =   0.0640000
        k(   11) = (   0.2109785   0.2109785   0.1430693), wk =   0.1280000
        k(   12) = (   0.2109785   0.2109785   0.2861386), wk =   0.1280000
        k(   13) = (   0.2109785   0.4219571   0.0000000), wk =   0.1280000
        k(   14) = (   0.2109785   0.4219571   0.1430693), wk =   0.2560000
        k(   15) = (   0.2109785   0.4219571   0.2861386), wk =   0.2560000
        k(   16) = (   0.4219571   0.4219571   0.0000000), wk =   0.0640000
        k(   17) = (   0.4219571   0.4219571   0.1430693), wk =   0.1280000
        k(   18) = (   0.4219571   0.4219571   0.2861386), wk =   0.1280000

     Initial potential from superposition of free atoms

     starting charge      71.4786, renormalised to      76.0000
     Starting wfcs are  102 randomized atomic wfcs
     Checking if some PAW data can be deallocated...

     Self-consistent Calculation

     iteration #  1     ecut=    70.00 Ry     beta= 0.70
     Davidson diagonalization with overlap
     c_bands:  3 eigenvalues not converged
     c_bands:  5 eigenvalues not converged
     c_bands:  4 eigenvalues not converged
     c_bands:  4 eigenvalues not converged
     c_bands:  5 eigenvalues not converged
     c_bands:  5 eigenvalues not converged
     c_bands:  1 eigenvalues not converged
     c_bands:  3 eigenvalues not converged
     c_bands:  4 eigenvalues not converged
     c_bands:  2 eigenvalues not converged
     ethr =  1.00E-06,  avg # of iterations = 27.6

[...]

     total energy              =    -415.00342331 Ry
     estimated scf accuracy    <          2.9E-10 Ry

     iteration # 12     ecut=    70.00 Ry     beta= 0.70
     Davidson diagonalization with overlap
     ethr =  3.86E-13,  avg # of iterations =  3.7

     End of self-consistent calculation

[...]

          k = 0.4220 0.4220 0.2861 ( 24940 PWs)   bands (ev):

   -44.1909 -44.1909 -43.5223 -43.5223 -43.5211 -43.5211 -43.5210 -43.5210
   -43.5198 -43.5198  -6.2392  -6.1714  -5.6008  -5.4670  -5.3022  -5.2550
    -3.3722  -3.3576  -2.3016  -2.0034  -1.8513  -1.7362  -1.5916  -1.5621
    -1.3459  -1.2659  -0.8373  -0.7380  -0.7137  -0.6627  -0.4816  -0.4620
     0.0063   0.0307   0.8098   0.8825   1.2235   1.2284   5.1958   5.2437
     5.5721   5.5965   5.7029   5.8420   6.3865   6.4318

     the Fermi energy is     2.4876 ev

!    total energy              =    -415.00342331 Ry
     estimated scf accuracy    <          9.6E-11 Ry
     smearing contrib. (-TS)   =       0.00000000 Ry
     internal energy E=F+TS    =    -415.00342331 Ry

     The total energy is F=E-TS. E is the sum of the following terms:
     one-electron contribution =     -66.01229819 Ry
     hartree contribution      =      39.20123506 Ry
     xc contribution           =     -70.07879066 Ry
     ewald contribution        =    -110.07407254 Ry
     one-center paw contrib.   =    -208.03949698 Ry

     convergence has been achieved in  12 iterations

     Forces acting on atoms (cartesian axes, Ry/au):

     atom    1 type  1   force =     0.00000000    0.00000000    0.00000000
     atom    2 type  1   force =     0.00000000    0.00000000    0.00000000
     atom    3 type  1   force =     0.00000000    0.00000000    0.00000000
     atom    4 type  1   force =     0.00000000    0.00000000    0.00000000
     atom    5 type  1   force =     0.00000000    0.00000000    0.00000000
     atom    6 type  1   force =     0.00000000    0.00000000   -0.00000000
     atom    7 type  2   force =     0.00000000    0.00000000    0.00000000
     atom    8 type  2   force =     0.00000000    0.00000000    0.00000000
     atom    9 type  2   force =    -0.00014103   -0.00014103    0.00000000
     atom   10 type  2   force =     0.00014103   -0.00014103    0.00000000
     atom   11 type  2   force =    -0.00014103    0.00014103    0.00000000
     atom   12 type  2   force =     0.00014103    0.00014103    0.00000000
     atom   13 type  2   force =    -0.00014103   -0.00014103    0.00000000
     atom   14 type  2   force =     0.00014103   -0.00014103    0.00000000
     atom   15 type  2   force =    -0.00014103    0.00014103    0.00000000
     atom   16 type  2   force =     0.00014103    0.00014103    0.00000000
     atom   17 type  3   force =    -0.00013975   -0.00018947   -0.00028314
     atom   18 type  3   force =     0.00013975    0.00018947   -0.00028314
     atom   19 type  3   force =    -0.00018947   -0.00013975    0.00028314
     atom   20 type  3   force =    -0.00018947    0.00013975   -0.00028314
     atom   21 type  3   force =     0.00018947   -0.00013975   -0.00028314
     atom   22 type  3   force =     0.00013975   -0.00018947    0.00028314
     atom   23 type  3   force =    -0.00013975    0.00018947    0.00028314
     atom   24 type  3   force =     0.00018947    0.00013975    0.00028314
     atom   25 type  3   force =     0.00013975    0.00018947    0.00028314
     atom   26 type  3   force =    -0.00013975   -0.00018947    0.00028314
     atom   27 type  3   force =     0.00018947    0.00013975   -0.00028314
     atom   28 type  3   force =     0.00018947   -0.00013975    0.00028314
     atom   29 type  3   force =    -0.00018947    0.00013975    0.00028314
     atom   30 type  3   force =    -0.00013975    0.00018947   -0.00028314
     atom   31 type  3   force =     0.00013975   -0.00018947   -0.00028314
     atom   32 type  3   force =    -0.00018947   -0.00013975   -0.00028314
     atom   33 type  3   force =     0.00000000    0.00000000    0.00048248
     atom   34 type  3   force =     0.00000000    0.00000000   -0.00048248
     atom   35 type  3   force =     0.00000000    0.00000000   -0.00048248
     atom   36 type  3   force =     0.00000000    0.00000000    0.00048248
     atom   37 type  3   force =     0.00000131   -0.00014274    0.00000000
     atom   38 type  3   force =     0.00014274    0.00000131   -0.00000000
     atom   39 type  3   force =    -0.00014274   -0.00000131   -0.00000000
     atom   40 type  3   force =     0.00000131    0.00014274   -0.00000000
     atom   41 type  3   force =    -0.00000131   -0.00014274    0.00000000
     atom   42 type  3   force =    -0.00000131    0.00014274    0.00000000
     atom   43 type  3   force =    -0.00014274    0.00000131   -0.00000000
     atom   44 type  3   force =     0.00014274   -0.00000131   -0.00000000

     Total force =     0.001893     Total SCF correction =     0.000006

     Computing stress (Cartesian axis) and pressure

          total   stress  (Ry/bohr**3)                   (kbar)     P=       -0.04
  -0.00000113   0.00000000   0.00000000           -0.17        0.00        0.00
   0.00000000  -0.00000113   0.00000000            0.00       -0.17        0.00
   0.00000000   0.00000000   0.00000138            0.00        0.00        0.20

     Writing all to output data dir ./Li5Al3H14.save/

     General routines

     Parallel routines

   This run was terminated on:  19:50:33   6Dec2023

   JOB DONE.