     Program PWSCF v.7.1 starts on  6Dec2023 at 22:27:20

     Reading input from LiH.in

     Current dimensions of program PWSCF are:
     Max number of different atomic species (ntypx) = 10
     Max number of k-points (npk) =  40000
     Max angular momentum in pseudopotentials (lmaxx) =  4

     IMPORTANT: XC functional enforced from input :
     Exchange-correlation= PBE
                           (   1   4   3   4   0   0   0)
     Any further DFT definition will be discarded
     Please, verify this is what you really want

     Message from routine set_cutoff:
     ecutrho < 4*ecutwfc, are you sure?
     Found identity + (  0.0000 -0.5000 -0.5000) symmetry
     This is a supercell, fractional translations are disabled
     Message from routine setup:
     using ibrav=0 with symmetry is DISCOURAGED, use correct ibrav instead

     K-points division:     npool     =       2
     R & G space division:  proc/nbgrp/npool/nimage =      14
     Subspace diagonalization in iterative solution of the eigenvalue problem:
     a serial algorithm will be used

     Using Slab Decomposition

     bravais-lattice index     =            0
     lattice parameter (alat)  =       7.5915  a.u.
     unit-cell volume          =     437.5019 (a.u.)^3
     number of atoms/cell      =            8
     number of atomic types    =            2
     number of electrons       =        16.00
     number of Kohn-Sham states=           12
     kinetic-energy cutoff     =      70.0000  Ry
     charge density cutoff     =     200.0000  Ry
     scf convergence threshold =      1.0E-08
     mixing beta               =       0.7000
     number of iterations used =            8  plain     mixing
     energy convergence thresh.=      1.0E-04
     force convergence thresh. =      1.0E-03
     press convergence thresh. =      5.0E-01
     Exchange-correlation= PBE
                           (   1   4   3   4   0   0   0)
     nstep                     =           50

     celldm(1)=   7.591483  celldm(2)=   0.000000  celldm(3)=   0.000000
     celldm(4)=   0.000000  celldm(5)=   0.000000  celldm(6)=   0.000000

     crystal axes: (cart. coord. in units of alat)
               a(1) = (   1.000000   0.000000   0.000000 )
               a(2) = (   0.000000   1.000000   0.000000 )
               a(3) = (   0.000000   0.000000   1.000000 )

     reciprocal axes: (cart. coord. in units 2 pi/alat)
               b(1) = (  1.000000  0.000000  0.000000 )
               b(2) = (  0.000000  1.000000  0.000000 )
               b(3) = (  0.000000  0.000000  1.000000 )

     PseudoPot. # 1 for Li read from file:
     /scratch/antwerpen/209/vsc20922/pseudos/li_pbe_v1.4.uspp.F.UPF
     MD5 check sum: e912e257baa3777c20ea3d68f190483c
     Pseudo is Ultrasoft, Zval =  3.0
     Generated by new atomic code, or converted to UPF format
     Using radial grid of  751 points,  5 beta functions with:
                l(1) =   0
                l(2) =   0
                l(3) =   0
                l(4) =   1
                l(5) =   1
     Q(r) pseudized with 10 coefficients,  rinner =    1.150   1.150   1.150

     PseudoPot. # 2 for H  read from file:
     /scratch/antwerpen/209/vsc20922/pseudos/H.pbe-rrkjus_psl.1.0.0.UPF
     MD5 check sum: f52b6d4d1c606e5624b1dc7b2218f220
     Pseudo is Ultrasoft, Zval =  1.0
     Generated using "atomic" code by A. Dal Corso  v.5.1
     Using radial grid of  929 points,  2 beta functions with:
                l(1) =   0
                l(2) =   0
     Q(r) pseudized with 0 coefficients

     atomic species   valence    mass     pseudopotential
        Li             3.00     6.96750     Li( 1.00)
        H              1.00     1.00750     H ( 1.00)

     48 Sym. Ops., with inversion, found

   Cartesian axes

     site n.     atom                  positions (alat units)
         1           Li  tau(   1) = (   0.0000000   0.0000000   0.0000000  )
         2           Li  tau(   2) = (   0.0000000   0.5000000   0.5000000  )
         3           Li  tau(   3) = (   0.5000000   0.0000000   0.5000000  )
         4           Li  tau(   4) = (   0.5000000   0.5000000   0.0000000  )
         5           H   tau(   5) = (   0.0000000   0.0000000   0.5000000  )
         6           H   tau(   6) = (   0.0000000   0.5000000   0.0000000  )
         7           H   tau(   7) = (   0.5000000   0.0000000   0.0000000  )
         8           H   tau(   8) = (   0.5000000   0.5000000   0.5000000  )

     number of k points=    10  Marzari-Vanderbilt smearing, width (Ry)=  0.0050
                       cart. coord. in units 2pi/alat
        k(    1) = (   0.0000000   0.0000000   0.0000000), wk =   0.0160000
        k(    2) = (   0.0000000   0.0000000   0.2000000), wk =   0.0960000
        k(    3) = (   0.0000000   0.0000000   0.4000000), wk =   0.0960000
        k(    4) = (   0.0000000   0.2000000   0.2000000), wk =   0.1920000
        k(    5) = (   0.0000000   0.2000000   0.4000000), wk =   0.3840000
        k(    6) = (   0.0000000   0.4000000   0.4000000), wk =   0.1920000
        k(    7) = (   0.2000000   0.2000000   0.2000000), wk =   0.1280000
        k(    8) = (   0.2000000   0.2000000   0.4000000), wk =   0.3840000
        k(    9) = (   0.2000000   0.4000000   0.4000000), wk =   0.3840000
        k(   10) = (   0.4000000   0.4000000   0.4000000), wk =   0.1280000

     Initial potential from superposition of free atoms

     starting charge      14.1970, renormalised to      16.0000
     Starting wfcs are   24 randomized atomic wfcs

     Self-consistent Calculation

     iteration #  1     ecut=    70.00 Ry     beta= 0.70
     Davidson diagonalization with overlap
     ethr =  1.00E-02,  avg # of iterations =  2.5

     total energy              =     -62.72284134 Ry
     estimated scf accuracy    <       0.61601427 Ry

[...]

     End of self-consistent calculation

          k = 0.0000 0.0000 0.0000 (  4385 PWs)   bands (ev):

   -43.6619 -43.6030 -43.6030 -43.6030  -4.8130   0.6001   0.6001   0.6001
     3.5876   3.5876   3.5876  11.3829

[...]

     the Fermi energy is     1.4872 ev

!    total energy              =     -62.79909026 Ry
     estimated scf accuracy    <          6.8E-10 Ry
     smearing contrib. (-TS)   =       0.00000000 Ry
     internal energy E=F+TS    =     -62.79909026 Ry

     The total energy is F=E-TS. E is the sum of the following terms:
     one-electron contribution =     -31.87317635 Ry
     hartree contribution      =      13.30487032 Ry
     xc contribution           =     -16.62773725 Ry
     ewald contribution        =     -27.60304698 Ry

     convergence has been achieved in   8 iterations

     Forces acting on atoms (cartesian axes, Ry/au):

     atom    1 type  1   force =     0.00000000    0.00000000    0.00000000
     atom    2 type  1   force =     0.00000000    0.00000000    0.00000000
     atom    3 type  1   force =     0.00000000    0.00000000    0.00000000
     atom    4 type  1   force =     0.00000000    0.00000000    0.00000000
     atom    5 type  2   force =     0.00000000    0.00000000    0.00000000
     atom    6 type  2   force =     0.00000000    0.00000000    0.00000000
     atom    7 type  2   force =     0.00000000    0.00000000    0.00000000
     atom    8 type  2   force =     0.00000000    0.00000000    0.00000000

     Total force =     0.000000     Total SCF correction =     0.000000

     Computing stress (Cartesian axis) and pressure

          total   stress  (Ry/bohr**3)                   (kbar)     P=       -2.18
  -0.00001482   0.00000000   0.00000000           -2.18        0.00        0.00
   0.00000000  -0.00001482   0.00000000            0.00       -2.18        0.00
   0.00000000   0.00000000  -0.00001482            0.00        0.00       -2.18

     BFGS Geometry Optimization
     Energy error            =      0.0E+00 Ry
     Gradient error          =      0.0E+00 Ry/Bohr
     Cell gradient error     =      2.2E+00 kbar

     number of scf cycles    =   1
     number of bfgs steps    =   0

     enthalpy           new  =     -62.7990902580 Ry

     new trust radius        =       0.0015494956 bohr
     new conv_thr            =       0.0000000100 Ry

     new unit-cell volume =    437.01592 a.u.^3 (    64.75908 Ang^3 )
     density =      0.81797 g/cm^3

CELL_PARAMETERS (alat=  7.59148338)
   0.999629601   0.000000000   0.000000000
   0.000000000   0.999629601   0.000000000
   0.000000000   0.000000000   0.999629601

ATOMIC_POSITIONS (crystal)
Li            0.0000000000        0.0000000000        0.0000000000
Li            0.0000000000        0.5000000000        0.5000000000
Li            0.5000000000        0.0000000000        0.5000000000
Li            0.5000000000        0.5000000000        0.0000000000
H             0.0000000000        0.0000000000        0.5000000000
H             0.0000000000        0.5000000000        0.0000000000
H             0.5000000000        0.0000000000        0.0000000000
H             0.5000000000        0.5000000000        0.5000000000

     Writing config-only to output data dir ./LiH.save/
     NEW-OLD atomic charge density approx. for the potential
     extrapolated charge   15.98421, renormalised to   16.00000

[...]

     Threshold (ethr) on eigenvalues was too large:
     Diagonalizing with lowered threshold

     Davidson diagonalization with overlap
     ethr =  8.30E-09,  avg # of iterations =  1.4

[...]

     Energy error            =      6.6E-06 Ry
     Gradient error          =      0.0E+00 Ry/Bohr
     Cell gradient error     =      1.8E+00 kbar

[...]

     enthalpy           old  =     -62.7990902580 Ry
     enthalpy           new  =     -62.7990968823 Ry

     CASE: enthalpy          _new < enthalpy          _old

     WARNING: bfgs curvature condition failed, Theta= 0.961
     new trust radius        =       0.0023238129 bohr
     new conv_thr            =            1.0E-10 Ry

[...]

     number of scf cycles    =   3
     number of bfgs steps    =   2

     enthalpy           old  =     -62.7990968823 Ry
     enthalpy           new  =     -62.7991043551 Ry

     CASE: enthalpy          _new < enthalpy          _old

     new trust radius        =       0.0034847505 bohr
     new conv_thr            =            1.0E-10 Ry

     new unit-cell volume =    435.19673 a.u.^3 (    64.48950 Ang^3 )
     density =      0.82139 g/cm^3

[...]

ATOMIC_POSITIONS (crystal)
Li            0.0000000000        0.0000000000        0.0000000000
Li            0.0000000000        0.5000000000        0.5000000000
Li            0.5000000000        0.0000000000        0.5000000000
Li            0.5000000000        0.5000000000        0.0000000000
H             0.0000000000        0.0000000000        0.5000000000
H             0.0000000000        0.5000000000        0.0000000000
H             0.5000000000        0.0000000000        0.0000000000
H             0.5000000000        0.5000000000        0.5000000000

     Writing config-only to output data dir ./LiH.save/
     NEW-OLD atomic charge density approx. for the potential
     extrapolated charge   15.96441, renormalised to   16.00000

[...]

     Threshold (ethr) on eigenvalues was too large:
     Diagonalizing with lowered threshold

     Davidson diagonalization with overlap
     ethr =  4.29E-08,  avg # of iterations =  1.0

[...]

     Energy error            =      5.6E-06 Ry
     Gradient error          =      0.0E+00 Ry/Bohr
     Cell gradient error     =      3.5E-01 kbar

     bfgs converged in   4 scf cycles and   3 bfgs steps
     (criteria: energy <  1.0E-04 Ry, force <  1.0E-03 Ry/Bohr, cell <  5.0E-01 kbar)

     End of BFGS Geometry Optimization

     Final enthalpy           =     -62.7991100007 Ry

     File ./LiH.bfgs deleted, as requested
Begin final coordinates
     new unit-cell volume =    435.19673 a.u.^3 (    64.48950 Ang^3 )
     density =      0.82139 g/cm^3

CELL_PARAMETERS (alat=  7.59148338)
   0.998240602   0.000000000   0.000000000
   0.000000000   0.998240602   0.000000000
   0.000000000   0.000000000   0.998240602

ATOMIC_POSITIONS (crystal)
Li            0.0000000000        0.0000000000        0.0000000000
Li            0.0000000000        0.5000000000        0.5000000000
Li            0.5000000000        0.0000000000        0.5000000000
Li            0.5000000000        0.5000000000        0.0000000000
H             0.0000000000        0.0000000000        0.5000000000
H             0.0000000000        0.5000000000        0.0000000000
H             0.5000000000        0.0000000000        0.0000000000
H             0.5000000000        0.5000000000        0.5000000000
End final coordinates

     Writing config-only to output data dir ./LiH.save/

     Final scf calculation at the relaxed structure.
     The G-vectors are recalculated for the final unit cell
     Results may differ from those at the preceding step.

     Using Slab Decomposition

     bravais-lattice index     =            0
     lattice parameter (alat)  =       7.5915  a.u.
     unit-cell volume          =     435.1967 (a.u.)^3
     number of atoms/cell      =            8
     number of atomic types    =            2
     number of electrons       =        16.00
     number of Kohn-Sham states=           12
     kinetic-energy cutoff     =      70.0000  Ry
     charge density cutoff     =     200.0000  Ry
     scf convergence threshold =      1.0E-10
     mixing beta               =       0.7000
     number of iterations used =            8  plain     mixing
     press convergence thresh. =      5.0E-01
     Exchange-correlation= PBE
                           (   1   4   3   4   0   0   0)

     celldm(1)=   7.591483  celldm(2)=   0.000000  celldm(3)=   0.000000
     celldm(4)=   0.000000  celldm(5)=   0.000000  celldm(6)=   0.000000

     crystal axes: (cart. coord. in units of alat)
               a(1) = (   0.998241   0.000000   0.000000 )
               a(2) = (   0.000000   0.998241   0.000000 )
               a(3) = (   0.000000   0.000000   0.998241 )

     reciprocal axes: (cart. coord. in units 2 pi/alat)
               b(1) = (  1.001762  0.000000  0.000000 )
               b(2) = (  0.000000  1.001762  0.000000 )
               b(3) = (  0.000000  0.000000  1.001762 )

     PseudoPot. # 1 for Li read from file:
     /scratch/antwerpen/209/vsc20922/pseudos/li_pbe_v1.4.uspp.F.UPF
     MD5 check sum: e912e257baa3777c20ea3d68f190483c
     Pseudo is Ultrasoft, Zval =  3.0
     Generated by new atomic code, or converted to UPF format
     Using radial grid of  751 points,  5 beta functions with:
                l(1) =   0
                l(2) =   0
                l(3) =   0
                l(4) =   1
                l(5) =   1
     Q(r) pseudized with 10 coefficients,  rinner =    1.150   1.150   1.150

     PseudoPot. # 2 for H  read from file:
     /scratch/antwerpen/209/vsc20922/pseudos/H.pbe-rrkjus_psl.1.0.0.UPF
     MD5 check sum: f52b6d4d1c606e5624b1dc7b2218f220
     Pseudo is Ultrasoft, Zval =  1.0
     Generated using "atomic" code by A. Dal Corso  v.5.1
     Using radial grid of  929 points,  2 beta functions with:
                l(1) =   0
                l(2) =   0
     Q(r) pseudized with 0 coefficients

     atomic species   valence    mass     pseudopotential
        Li             3.00     6.96750     Li( 1.00)
        H              1.00     1.00750     H ( 1.00)

     48 Sym. Ops., with inversion, found

   Cartesian axes

     site n.     atom                  positions (alat units)
         1           Li  tau(   1) = (   0.0000000   0.0000000   0.0000000  )
         2           Li  tau(   2) = (   0.0000000   0.4991203   0.4991203  )
         3           Li  tau(   3) = (   0.4991203   0.0000000   0.4991203  )
         4           Li  tau(   4) = (   0.4991203   0.4991203   0.0000000  )
         5           H   tau(   5) = (   0.0000000   0.0000000   0.4991203  )
         6           H   tau(   6) = (   0.0000000   0.4991203   0.0000000  )
         7           H   tau(   7) = (   0.4991203   0.0000000   0.0000000  )
         8           H   tau(   8) = (   0.4991203   0.4991203   0.4991203  )

     number of k points=    10  Marzari-Vanderbilt smearing, width (Ry)=  0.0050
                       cart. coord. in units 2pi/alat
        k(    1) = (   0.0000000   0.0000000   0.0000000), wk =   0.0160000
        k(    2) = (   0.0000000   0.0000000   0.2003525), wk =   0.0960000
        k(    3) = (   0.0000000   0.0000000   0.4007050), wk =   0.0960000
        k(    4) = (   0.0000000   0.2003525   0.2003525), wk =   0.1920000
        k(    5) = (   0.0000000   0.2003525   0.4007050), wk =   0.3840000
        k(    6) = (   0.0000000   0.4007050   0.4007050), wk =   0.1920000
        k(    7) = (   0.2003525   0.2003525   0.2003525), wk =   0.1280000
        k(    8) = (   0.2003525   0.2003525   0.4007050), wk =   0.3840000
        k(    9) = (   0.2003525   0.4007050   0.4007050), wk =   0.3840000
        k(   10) = (   0.4007050   0.4007050   0.4007050), wk =   0.1280000

     Initial potential from superposition of free atoms

     starting charge      14.1970, renormalised to      16.0000
     Starting wfcs are   24 randomized atomic wfcs

     Self-consistent Calculation

[...]

     total energy              =     -62.79910878 Ry
     estimated scf accuracy    <          2.3E-10 Ry

     iteration # 13     ecut=    70.00 Ry     beta= 0.70
     Davidson diagonalization with overlap
     ethr =  7.66E-13,  avg # of iterations =  1.0

     End of self-consistent calculation

[...]

          k = 0.4007 0.4007 0.4007 (  4323 PWs)   bands (ev):

   -43.5877 -43.5820 -43.5820 -43.5820  -2.4362  -1.8471  -1.8471  -1.8471
     5.6796   5.6796   5.6796   6.4706

     the Fermi energy is     1.5365 ev

!    total energy              =     -62.79910878 Ry
     estimated scf accuracy    <          4.5E-11 Ry
     smearing contrib. (-TS)   =       0.00000000 Ry
     internal energy E=F+TS    =     -62.79910878 Ry

     The total energy is F=E-TS. E is the sum of the following terms:
     one-electron contribution =     -31.80058891 Ry
     hartree contribution      =      13.28688217 Ry
     xc contribution           =     -16.63370474 Ry
     ewald contribution        =     -27.65169731 Ry

     convergence has been achieved in  13 iterations

     Forces acting on atoms (cartesian axes, Ry/au):

     atom    1 type  1   force =     0.00000000    0.00000000    0.00000000
     atom    2 type  1   force =     0.00000000    0.00000000    0.00000000
     atom    3 type  1   force =     0.00000000    0.00000000    0.00000000
     atom    4 type  1   force =     0.00000000    0.00000000    0.00000000
     atom    5 type  2   force =     0.00000000    0.00000000    0.00000000
     atom    6 type  2   force =     0.00000000    0.00000000    0.00000000
     atom    7 type  2   force =     0.00000000    0.00000000    0.00000000
     atom    8 type  2   force =     0.00000000    0.00000000    0.00000000

     Total force =     0.000000     Total SCF correction =     0.000000

     Computing stress (Cartesian axis) and pressure

          total   stress  (Ry/bohr**3)                   (kbar)     P=       -0.31
  -0.00000213   0.00000000   0.00000000           -0.31        0.00        0.00
   0.00000000  -0.00000213   0.00000000            0.00       -0.31        0.00
   0.00000000   0.00000000  -0.00000213            0.00        0.00       -0.31

     Writing all to output data dir ./LiH.save/

     General routines

     Parallel routines

   This run was terminated on:  22:27:24   6Dec2023

   JOB DONE.