     Program PWSCF v.7.1 starts on  3Dec2023 at 16:36:24

     Reading input from NaH_opt.in

     Current dimensions of program PWSCF are:
     Max number of different atomic species (ntypx) = 10
     Max number of k-points (npk) =  40000
     Max angular momentum in pseudopotentials (lmaxx) =  4

     IMPORTANT: XC functional enforced from input :
     Exchange-correlation= PBE
                           (   1   4   3   4   0   0   0)
     Any further DFT definition will be discarded
     Please, verify this is what you really want

     Found identity + (  0.0000 -0.5000 -0.5000) symmetry
     This is a supercell, fractional translations are disabled
     Message from routine setup:
     using ibrav=0 with symmetry is DISCOURAGED, use correct ibrav instead

     K-points division:     npool     =       2
     R & G space division:  proc/nbgrp/npool/nimage =      14
     Subspace diagonalization in iterative solution of the eigenvalue problem:
     a serial algorithm will be used

     Using Slab Decomposition

     bravais-lattice index     =            0
     lattice parameter (alat)  =       9.0194  a.u.
     unit-cell volume          =     733.7147 (a.u.)^3
     number of atoms/cell      =            8
     number of atomic types    =            2
     number of electrons       =        40.00
     number of Kohn-Sham states=           24
     kinetic-energy cutoff     =      70.0000  Ry
     charge density cutoff     =     280.0000  Ry
     scf convergence threshold =      1.0E-08
     mixing beta               =       0.7000
     number of iterations used =            8  plain     mixing
     energy convergence thresh.=      1.0E-04
     force convergence thresh. =      1.0E-03
     press convergence thresh. =      5.0E-01
     Exchange-correlation= PBE
                           (   1   4   3   4   0   0   0)
     nstep                     =           50

     celldm(1)=   9.019360  celldm(2)=   0.000000  celldm(3)=   0.000000
     celldm(4)=   0.000000  celldm(5)=   0.000000  celldm(6)=   0.000000

     crystal axes: (cart. coord. in units of alat)
               a(1) = (   1.000000   0.000000   0.000000 )
               a(2) = (   0.000000   1.000000   0.000000 )
               a(3) = (   0.000000   0.000000   1.000000 )

     reciprocal axes: (cart. coord. in units 2 pi/alat)
               b(1) = (  1.000000  0.000000  0.000000 )
               b(2) = (  0.000000  1.000000  0.000000 )
               b(3) = (  0.000000  0.000000  1.000000 )

     PseudoPot. # 1 for H  read from file:
     /scratch/antwerpen/209/vsc20922/pseudos/H.pbe-rrkjus_psl.1.0.0.UPF
     MD5 check sum: f52b6d4d1c606e5624b1dc7b2218f220
     Pseudo is Ultrasoft, Zval =  1.0
     Generated using "atomic" code by A. Dal Corso  v.5.1
     Using radial grid of  929 points,  2 beta functions with:
                l(1) =   0
                l(2) =   0
     Q(r) pseudized with 0 coefficients

     PseudoPot. # 2 for Na read from file:
     /scratch/antwerpen/209/vsc20922/pseudos/na_pbe_v1.5.uspp.F.UPF
     MD5 check sum: 44600605ef58000f06b90626533354dc
     Pseudo is Ultrasoft, Zval =  9.0
     Generated by new atomic code, or converted to UPF format
     Using radial grid of  819 points,  5 beta functions with:
                l(1) =   0
                l(2) =   0
                l(3) =   1
                l(4) =   1
                l(5) =   2
     Q(r) pseudized with  8 coefficients,  rinner =    1.250   1.250   1.250
                                                       1.250   1.250

     atomic species   valence    mass     pseudopotential
        H              1.00     1.00750     H ( 1.00)
        Na             9.00    22.98900     Na( 1.00)

     48 Sym. Ops., with inversion, found

   Cartesian axes

     site n.     atom                  positions (alat units)
         1           Na  tau(   1) = (   0.0000000   0.0000000   0.0000000  )
         2           Na  tau(   2) = (   0.0000000   0.5000000   0.5000000  )
         3           Na  tau(   3) = (   0.5000000   0.0000000   0.5000000  )
         4           Na  tau(   4) = (   0.5000000   0.5000000   0.0000000  )
         5           H   tau(   5) = (   0.0000000   0.0000000   0.5000000  )
         6           H   tau(   6) = (   0.0000000   0.5000000   0.0000000  )
         7           H   tau(   7) = (   0.5000000   0.0000000   0.0000000  )
         8           H   tau(   8) = (   0.5000000   0.5000000   0.5000000  )

     number of k points=    20  Marzari-Vanderbilt smearing, width (Ry)=  0.0050
                       cart. coord. in units 2pi/alat
        k(    1) = (   0.0000000   0.0000000   0.0000000), wk =   0.0058309
        k(    2) = (   0.0000000   0.0000000   0.1428571), wk =   0.0349854
        k(    3) = (   0.0000000   0.0000000   0.2857143), wk =   0.0349854
        k(    4) = (   0.0000000   0.0000000   0.4285714), wk =   0.0349854
        k(    5) = (   0.0000000   0.1428571   0.1428571), wk =   0.0699708
        k(    6) = (   0.0000000   0.1428571   0.2857143), wk =   0.1399417
        k(    7) = (   0.0000000   0.1428571   0.4285714), wk =   0.1399417
        k(    8) = (   0.0000000   0.2857143   0.2857143), wk =   0.0699708
        k(    9) = (   0.0000000   0.2857143   0.4285714), wk =   0.1399417
        k(   10) = (   0.0000000   0.4285714   0.4285714), wk =   0.0699708
        k(   11) = (   0.1428571   0.1428571   0.1428571), wk =   0.0466472
        k(   12) = (   0.1428571   0.1428571   0.2857143), wk =   0.1399417
        k(   13) = (   0.1428571   0.1428571   0.4285714), wk =   0.1399417
        k(   14) = (   0.1428571   0.2857143   0.2857143), wk =   0.1399417
        k(   15) = (   0.1428571   0.2857143   0.4285714), wk =   0.2798834
        k(   16) = (   0.1428571   0.4285714   0.4285714), wk =   0.1399417
        k(   17) = (   0.2857143   0.2857143   0.2857143), wk =   0.0466472
        k(   18) = (   0.2857143   0.2857143   0.4285714), wk =   0.1399417
        k(   19) = (   0.2857143   0.4285714   0.4285714), wk =   0.1399417
        k(   20) = (   0.4285714   0.4285714   0.4285714), wk =   0.0466472

     Initial potential from superposition of free atoms

     starting charge      39.9748, renormalised to      40.0000
     Starting wfcs are   24 randomized atomic wfcs

     Self-consistent Calculation

     iteration #  1     ecut=    70.00 Ry     beta= 0.70
     Davidson diagonalization with overlap
     ethr =  1.00E-02,  avg # of iterations =  3.6

     Threshold (ethr) on eigenvalues was too large:
     Diagonalizing with lowered threshold

     Davidson diagonalization with overlap
     ethr =  9.49E-04,  avg # of iterations =  1.5

     total energy              =    -386.10352240 Ry
     estimated scf accuracy    <       0.37289370 Ry

[...]

     End of self-consistent calculation

          k = 0.0000 0.0000 0.0000 (  7153 PWs)   bands (ev):

   -49.3514 -49.3409 -49.3409 -49.3409 -21.3258 -21.3258 -21.3258 -21.2673
   -21.2673 -21.2673 -21.2672 -21.2672 -21.2672 -21.2315 -21.2315 -21.2315
    -2.8980   0.6359   0.6359   0.6359   5.5329   5.5329   5.5329  11.5735

[...]

     the Fermi energy is     4.4681 ev

!    total energy              =    -386.16232218 Ry
     estimated scf accuracy    <          2.3E-09 Ry
     smearing contrib. (-TS)   =      -0.00000000 Ry
     internal energy E=F+TS    =    -386.16232218 Ry

     The total energy is F=E-TS. E is the sum of the following terms:
     one-electron contribution =    -312.39781104 Ry
     hartree contribution      =     162.02936548 Ry
     xc contribution           =     -60.36064727 Ry
     ewald contribution        =    -175.43322934 Ry

     convergence has been achieved in   7 iterations

     Forces acting on atoms (cartesian axes, Ry/au):

     atom    1 type  2   force =     0.00000000    0.00000000    0.00000000
     atom    2 type  2   force =     0.00000000    0.00000000    0.00000000
     atom    3 type  2   force =     0.00000000    0.00000000    0.00000000
     atom    4 type  2   force =     0.00000000    0.00000000    0.00000000
     atom    5 type  1   force =     0.00000000    0.00000000    0.00000000
     atom    6 type  1   force =     0.00000000    0.00000000    0.00000000
     atom    7 type  1   force =     0.00000000    0.00000000    0.00000000
     atom    8 type  1   force =     0.00000000    0.00000000    0.00000000

     Total force =     0.000000     Total SCF correction =     0.000000

     Computing stress (Cartesian axis) and pressure

          total   stress  (Ry/bohr**3)                   (kbar)     P=        9.99
   0.00006794   0.00000000   0.00000000            9.99        0.00        0.00
   0.00000000   0.00006794   0.00000000            0.00        9.99        0.00
   0.00000000   0.00000000   0.00006794            0.00        0.00        9.99

     BFGS Geometry Optimization
     Energy error            =      0.0E+00 Ry
     Gradient error          =      0.0E+00 Ry/Bohr
     Cell gradient error     =      1.0E+01 kbar

     number of scf cycles    =   1
     number of bfgs steps    =   0

     enthalpy           new  =    -386.1623221848 Ry

     new trust radius        =       0.0092011114 bohr
     new conv_thr            =       0.0000000100 Ry

     new unit-cell volume =    737.45955 a.u.^3 (   109.28023 Ang^3 )
     density =      1.45853 g/cm^3

CELL_PARAMETERS (alat=  9.01936044)
   1.001698426   0.000000000   0.000000000
   0.000000000   1.001698426   0.000000000
   0.000000000   0.000000000   1.001698426

ATOMIC_POSITIONS (crystal)
Na            0.0000000000        0.0000000000        0.0000000000
Na            0.0000000000        0.5000000000        0.5000000000
Na            0.5000000000        0.0000000000        0.5000000000
Na            0.5000000000        0.5000000000        0.0000000000
H             0.0000000000        0.0000000000        0.5000000000
H             0.0000000000        0.5000000000        0.0000000000
H             0.5000000000        0.0000000000        0.0000000000
H             0.5000000000        0.5000000000        0.5000000000

     Writing config-only to output data dir ./NaH.save/
     NEW-OLD atomic charge density approx. for the potential
     extrapolated charge   40.20299, renormalised to   40.00000

[...]

     Energy error            =      2.3E-04 Ry
     Gradient error          =      0.0E+00 Ry/Bohr
     Cell gradient error     =      8.4E+00 kbar

[...]

     enthalpy           old  =    -386.1623221848 Ry
     enthalpy           new  =    -386.1625554419 Ry

     CASE: enthalpy          _new < enthalpy          _old

     WARNING: bfgs curvature condition failed, Theta= 0.948
     new trust radius        =       0.0101298139 bohr
     new conv_thr            =            1.0E-10 Ry

[...]

     number of scf cycles    =   5
     number of bfgs steps    =   4

     enthalpy           old  =    -386.1630255373 Ry
     enthalpy           new  =    -386.1632399264 Ry

     CASE: enthalpy          _new < enthalpy          _old

     new trust radius        =       0.0136037236 bohr
     new conv_thr            =            1.0E-10 Ry

     new unit-cell volume =    762.86275 a.u.^3 (   113.04460 Ang^3 )
     density =      1.40996 g/cm^3

[...]

ATOMIC_POSITIONS (crystal)
Na            0.0000000000        0.0000000000        0.0000000000
Na            0.0000000000        0.5000000000        0.5000000000
Na            0.5000000000        0.0000000000        0.5000000000
Na            0.5000000000        0.5000000000        0.0000000000
H             0.0000000000        0.0000000000        0.5000000000
H             0.0000000000        0.5000000000        0.0000000000
H             0.5000000000        0.0000000000        0.0000000000
H             0.5000000000        0.5000000000        0.5000000000

     Writing config-only to output data dir ./NaH.save/
     NEW-OLD atomic charge density approx. for the potential
     extrapolated charge   40.29497, renormalised to   40.00000

[...]

     Energy error            =      3.7E-05 Ry
     Gradient error          =      0.0E+00 Ry/Bohr
     Cell gradient error     =      1.1E-01 kbar

     bfgs converged in   6 scf cycles and   5 bfgs steps
     (criteria: energy <  1.0E-04 Ry, force <  1.0E-03 Ry/Bohr, cell <  5.0E-01 kbar)

     End of BFGS Geometry Optimization

     Final enthalpy           =    -386.1632765836 Ry

     File ./NaH.bfgs deleted, as requested
Begin final coordinates
     new unit-cell volume =    762.86275 a.u.^3 (   113.04460 Ang^3 )
     density =      1.40996 g/cm^3

CELL_PARAMETERS (alat=  9.01936044)
   1.013070634   0.000000000   0.000000000
   0.000000000   1.013070634   0.000000000
   0.000000000   0.000000000   1.013070634

ATOMIC_POSITIONS (crystal)
Na            0.0000000000        0.0000000000        0.0000000000
Na            0.0000000000        0.5000000000        0.5000000000
Na            0.5000000000        0.0000000000        0.5000000000
Na            0.5000000000        0.5000000000        0.0000000000
H             0.0000000000        0.0000000000        0.5000000000
H             0.0000000000        0.5000000000        0.0000000000
H             0.5000000000        0.0000000000        0.0000000000
H             0.5000000000        0.5000000000        0.5000000000
End final coordinates

     Writing config-only to output data dir ./NaH.save/

     Final scf calculation at the relaxed structure.
     The G-vectors are recalculated for the final unit cell
     Results may differ from those at the preceding step.

     Using Slab Decomposition

     bravais-lattice index     =            0
     lattice parameter (alat)  =       9.0194  a.u.
     unit-cell volume          =     762.8627 (a.u.)^3
     number of atoms/cell      =            8
     number of atomic types    =            2
     number of electrons       =        40.00
     number of Kohn-Sham states=           24
     kinetic-energy cutoff     =      70.0000  Ry
     charge density cutoff     =     280.0000  Ry
     scf convergence threshold =      1.0E-10
     mixing beta               =       0.7000
     number of iterations used =            8  plain     mixing
     press convergence thresh. =      5.0E-01
     Exchange-correlation= PBE
                           (   1   4   3   4   0   0   0)

     celldm(1)=   9.019360  celldm(2)=   0.000000  celldm(3)=   0.000000
     celldm(4)=   0.000000  celldm(5)=   0.000000  celldm(6)=   0.000000

     crystal axes: (cart. coord. in units of alat)
               a(1) = (   1.013071   0.000000   0.000000 )
               a(2) = (   0.000000   1.013071   0.000000 )
               a(3) = (   0.000000   0.000000   1.013071 )

     reciprocal axes: (cart. coord. in units 2 pi/alat)
               b(1) = (  0.987098  0.000000  0.000000 )
               b(2) = (  0.000000  0.987098  0.000000 )
               b(3) = (  0.000000  0.000000  0.987098 )

     PseudoPot. # 1 for H  read from file:
     /scratch/antwerpen/209/vsc20922/pseudos/H.pbe-rrkjus_psl.1.0.0.UPF
     MD5 check sum: f52b6d4d1c606e5624b1dc7b2218f220
     Pseudo is Ultrasoft, Zval =  1.0
     Generated using "atomic" code by A. Dal Corso  v.5.1
     Using radial grid of  929 points,  2 beta functions with:
                l(1) =   0
                l(2) =   0
     Q(r) pseudized with 0 coefficients

     PseudoPot. # 2 for Na read from file:
     /scratch/antwerpen/209/vsc20922/pseudos/na_pbe_v1.5.uspp.F.UPF
     MD5 check sum: 44600605ef58000f06b90626533354dc
     Pseudo is Ultrasoft, Zval =  9.0
     Generated by new atomic code, or converted to UPF format
     Using radial grid of  819 points,  5 beta functions with:
                l(1) =   0
                l(2) =   0
                l(3) =   1
                l(4) =   1
                l(5) =   2
     Q(r) pseudized with  8 coefficients,  rinner =    1.250   1.250   1.250
                                                       1.250   1.250

     atomic species   valence    mass     pseudopotential
        H              1.00     1.00750     H ( 1.00)
        Na             9.00    22.98900     Na( 1.00)

     48 Sym. Ops., with inversion, found

   Cartesian axes

     site n.     atom                  positions (alat units)
         1           Na  tau(   1) = (   0.0000000   0.0000000   0.0000000  )
         2           Na  tau(   2) = (   0.0000000   0.5065353   0.5065353  )
         3           Na  tau(   3) = (   0.5065353   0.0000000   0.5065353  )
         4           Na  tau(   4) = (   0.5065353   0.5065353   0.0000000  )
         5           H   tau(   5) = (   0.0000000   0.0000000   0.5065353  )
         6           H   tau(   6) = (   0.0000000   0.5065353   0.0000000  )
         7           H   tau(   7) = (   0.5065353   0.0000000   0.0000000  )
         8           H   tau(   8) = (   0.5065353   0.5065353   0.5065353  )

     number of k points=    20  Marzari-Vanderbilt smearing, width (Ry)=  0.0050
                       cart. coord. in units 2pi/alat
        k(    1) = (   0.0000000   0.0000000   0.0000000), wk =   0.0058309
        k(    2) = (   0.0000000   0.0000000   0.1410140), wk =   0.0349854
        k(    3) = (   0.0000000   0.0000000   0.2820280), wk =   0.0349854
        k(    4) = (   0.0000000   0.0000000   0.4230420), wk =   0.0349854
        k(    5) = (   0.0000000   0.1410140   0.1410140), wk =   0.0699708
        k(    6) = (   0.0000000   0.1410140   0.2820280), wk =   0.1399417
        k(    7) = (   0.0000000   0.1410140   0.4230420), wk =   0.1399417
        k(    8) = (   0.0000000   0.2820280   0.2820280), wk =   0.0699708
        k(    9) = (   0.0000000   0.2820280   0.4230420), wk =   0.1399417
        k(   10) = (   0.0000000   0.4230420   0.4230420), wk =   0.0699708
        k(   11) = (   0.1410140   0.1410140   0.1410140), wk =   0.0466472
        k(   12) = (   0.1410140   0.1410140   0.2820280), wk =   0.1399417
        k(   13) = (   0.1410140   0.1410140   0.4230420), wk =   0.1399417
        k(   14) = (   0.1410140   0.2820280   0.2820280), wk =   0.1399417
        k(   15) = (   0.1410140   0.2820280   0.4230420), wk =   0.2798834
        k(   16) = (   0.1410140   0.4230420   0.4230420), wk =   0.1399417
        k(   17) = (   0.2820280   0.2820280   0.2820280), wk =   0.0466472
        k(   18) = (   0.2820280   0.2820280   0.4230420), wk =   0.1399417
        k(   19) = (   0.2820280   0.4230420   0.4230420), wk =   0.1399417
        k(   20) = (   0.4230420   0.4230420   0.4230420), wk =   0.0466472

     Initial potential from superposition of free atoms

     starting charge      39.9748, renormalised to      40.0000
     Starting wfcs are   24 randomized atomic wfcs

     Self-consistent Calculation

     iteration #  1     ecut=    70.00 Ry     beta= 0.70
     Davidson diagonalization with overlap
     c_bands:  1 eigenvalues not converged
     ethr =  1.00E-06,  avg # of iterations = 13.3

[...]

     total energy              =    -386.16337021 Ry
     estimated scf accuracy    <          2.0E-09 Ry

     iteration #  8     ecut=    70.00 Ry     beta= 0.70
     Davidson diagonalization with overlap
     ethr =  5.05E-12,  avg # of iterations =  1.9

     End of self-consistent calculation

[...]

          k = 0.4230 0.4230 0.4230 (  7559 PWs)   bands (ev):

   -49.6024 -49.6019 -49.6019 -49.6019 -21.5835 -21.5835 -21.5835 -21.5811
   -21.5068 -21.5068 -21.5068 -21.5051 -21.5051 -21.5051 -21.5036 -21.5036
    -0.4817  -0.2155  -0.2155  -0.2155   4.5181   4.5181   4.5181   4.7852

     the Fermi energy is     3.9610 ev

!    total energy              =    -386.16337021 Ry
     estimated scf accuracy    <          8.7E-11 Ry
     smearing contrib. (-TS)   =      -0.00000000 Ry
     internal energy E=F+TS    =    -386.16337021 Ry

     The total energy is F=E-TS. E is the sum of the following terms:
     one-electron contribution =    -316.25625221 Ry
     hartree contribution      =     163.57925771 Ry
     xc contribution           =     -60.31658529 Ry
     ewald contribution        =    -173.16979042 Ry

     convergence has been achieved in   8 iterations

     Forces acting on atoms (cartesian axes, Ry/au):

     atom    1 type  2   force =     0.00000000    0.00000000    0.00000000
     atom    2 type  2   force =     0.00000000    0.00000000    0.00000000
     atom    3 type  2   force =     0.00000000    0.00000000    0.00000000
     atom    4 type  2   force =     0.00000000    0.00000000    0.00000000
     atom    5 type  1   force =     0.00000000    0.00000000    0.00000000
     atom    6 type  1   force =     0.00000000    0.00000000    0.00000000
     atom    7 type  1   force =     0.00000000    0.00000000    0.00000000
     atom    8 type  1   force =     0.00000000    0.00000000    0.00000000

     Total force =     0.000000     Total SCF correction =     0.000000

     Computing stress (Cartesian axis) and pressure

          total   stress  (Ry/bohr**3)                   (kbar)     P=        0.11
   0.00000074   0.00000000   0.00000000            0.11        0.00        0.00
   0.00000000   0.00000074   0.00000000            0.00        0.11        0.00
   0.00000000   0.00000000   0.00000074            0.00        0.00        0.11

     Writing all to output data dir ./NaH.save/

     General routines

     Parallel routines

   This run was terminated on:  16:37: 3   3Dec2023

   JOB DONE.